p cnf 6336 20736
-193 1 0
-193 81 0
193 -1 -81 0
-194 97 177 0
-194 -97 -177 0
194 -97 177 0
194 97 -177 0
-195 193 0
-195 -194 0
195 -193 194 0
-196 193 0
-196 194 0
196 -193 -194 0
-197 17 0
-197 65 0
197 -17 -65 0
-198 113 161 0
-198 -113 -161 0
198 -113 161 0
198 113 -161 0
-199 197 0
-199 -198 0
199 -197 198 0
-200 197 0
-200 198 0
200 -197 -198 0
-201 33 0
-201 49 0
201 -33 -49 0
-202 129 145 0
-202 -129 -145 0
202 -129 145 0
202 129 -145 0
-203 201 0
-203 -202 0
203 -201 202 0
-204 201 0
-204 202 0
204 -201 -202 0
-205 1 0
-205 82 0
205 -1 -82 0
-206 97 178 0
-206 -97 -178 0
206 -97 178 0
206 97 -178 0
-207 205 0
-207 -206 0
207 -205 206 0
-208 205 0
-208 206 0
208 -205 -206 0
-209 17 0
-209 66 0
209 -17 -66 0
-210 113 162 0
-210 -113 -162 0
210 -113 162 0
210 113 -162 0
-211 209 0
-211 -210 0
211 -209 210 0
-212 209 0
-212 210 0
212 -209 -210 0
-213 34 0
-213 49 0
213 -34 -49 0
-214 130 145 0
-214 -130 -145 0
214 -130 145 0
214 130 -145 0
-215 213 0
-215 -214 0
215 -213 214 0
-216 213 0
-216 214 0
216 -213 -214 0
-217 1 0
-217 83 0
217 -1 -83 0
-218 97 179 0
-218 -97 -179 0
218 -97 179 0
218 97 -179 0
-219 217 0
-219 -218 0
219 -217 218 0
-220 217 0
-220 218 0
220 -217 -218 0
-221 17 0
-221 67 0
221 -17 -67 0
-222 113 163 0
-222 -113 -163 0
222 -113 163 0
222 113 -163 0
-223 221 0
-223 -222 0
223 -221 222 0
-224 221 0
-224 222 0
224 -221 -222 0
-225 35 0
-225 49 0
225 -35 -49 0
-226 131 145 0
-226 -131 -145 0
226 -131 145 0
226 131 -145 0
-227 225 0
-227 -226 0
227 -225 226 0
-228 225 0
-228 226 0
228 -225 -226 0
-229 1 0
-229 84 0
229 -1 -84 0
-230 97 180 0
-230 -97 -180 0
230 -97 180 0
230 97 -180 0
-231 229 0
-231 -230 0
231 -229 230 0
-232 229 0
-232 230 0
232 -229 -230 0
-233 17 0
-233 68 0
233 -17 -68 0
-234 113 164 0
-234 -113 -164 0
234 -113 164 0
234 113 -164 0
-235 233 0
-235 -234 0
235 -233 234 0
-236 233 0
-236 234 0
236 -233 -234 0
-237 36 0
-237 49 0
237 -36 -49 0
-238 132 145 0
-238 -132 -145 0
238 -132 145 0
238 132 -145 0
-239 237 0
-239 -238 0
239 -237 238 0
-240 237 0
-240 238 0
240 -237 -238 0
-241 1 0
-241 85 0
241 -1 -85 0
-242 97 181 0
-242 -97 -181 0
242 -97 181 0
242 97 -181 0
-243 241 0
-243 -242 0
243 -241 242 0
-244 241 0
-244 242 0
244 -241 -242 0
-245 18 0
-245 65 0
245 -18 -65 0
-246 114 161 0
-246 -114 -161 0
246 -114 161 0
246 114 -161 0
-247 245 0
-247 -246 0
247 -245 246 0
-248 245 0
-248 246 0
248 -245 -246 0
-249 33 0
-249 50 0
249 -33 -50 0
-250 129 146 0
-250 -129 -146 0
250 -129 146 0
250 129 -146 0
-251 249 0
-251 -250 0
251 -249 250 0
-252 249 0
-252 250 0
252 -249 -250 0
-253 1 0
-253 86 0
253 -1 -86 0
-254 97 182 0
-254 -97 -182 0
254 -97 182 0
254 97 -182 0
-255 253 0
-255 -254 0
255 -253 254 0
-256 253 0
-256 254 0
256 -253 -254 0
-257 18 0
-257 66 0
257 -18 -66 0
-258 114 162 0
-258 -114 -162 0
258 -114 162 0
258 114 -162 0
-259 257 0
-259 -258 0
259 -257 258 0
-260 257 0
-260 258 0
260 -257 -258 0
-261 34 0
-261 50 0
261 -34 -50 0
-262 130 146 0
-262 -130 -146 0
262 -130 146 0
262 130 -146 0
-263 261 0
-263 -262 0
263 -261 262 0
-264 261 0
-264 262 0
264 -261 -262 0
-265 1 0
-265 87 0
265 -1 -87 0
-266 97 183 0
-266 -97 -183 0
266 -97 183 0
266 97 -183 0
-267 265 0
-267 -266 0
267 -265 266 0
-268 265 0
-268 266 0
268 -265 -266 0
-269 18 0
-269 67 0
269 -18 -67 0
-270 114 163 0
-270 -114 -163 0
270 -114 163 0
270 114 -163 0
-271 269 0
-271 -270 0
271 -269 270 0
-272 269 0
-272 270 0
272 -269 -270 0
-273 35 0
-273 50 0
273 -35 -50 0
-274 131 146 0
-274 -131 -146 0
274 -131 146 0
274 131 -146 0
-275 273 0
-275 -274 0
275 -273 274 0
-276 273 0
-276 274 0
276 -273 -274 0
-277 1 0
-277 88 0
277 -1 -88 0
-278 97 184 0
-278 -97 -184 0
278 -97 184 0
278 97 -184 0
-279 277 0
-279 -278 0
279 -277 278 0
-280 277 0
-280 278 0
280 -277 -278 0
-281 18 0
-281 68 0
281 -18 -68 0
-282 114 164 0
-282 -114 -164 0
282 -114 164 0
282 114 -164 0
-283 281 0
-283 -282 0
283 -281 282 0
-284 281 0
-284 282 0
284 -281 -282 0
-285 36 0
-285 50 0
285 -36 -50 0
-286 132 146 0
-286 -132 -146 0
286 -132 146 0
286 132 -146 0
-287 285 0
-287 -286 0
287 -285 286 0
-288 285 0
-288 286 0
288 -285 -286 0
-289 1 0
-289 89 0
289 -1 -89 0
-290 97 185 0
-290 -97 -185 0
290 -97 185 0
290 97 -185 0
-291 289 0
-291 -290 0
291 -289 290 0
-292 289 0
-292 290 0
292 -289 -290 0
-293 19 0
-293 65 0
293 -19 -65 0
-294 115 161 0
-294 -115 -161 0
294 -115 161 0
294 115 -161 0
-295 293 0
-295 -294 0
295 -293 294 0
-296 293 0
-296 294 0
296 -293 -294 0
-297 33 0
-297 51 0
297 -33 -51 0
-298 129 147 0
-298 -129 -147 0
298 -129 147 0
298 129 -147 0
-299 297 0
-299 -298 0
299 -297 298 0
-300 297 0
-300 298 0
300 -297 -298 0
-301 1 0
-301 90 0
301 -1 -90 0
-302 97 186 0
-302 -97 -186 0
302 -97 186 0
302 97 -186 0
-303 301 0
-303 -302 0
303 -301 302 0
-304 301 0
-304 302 0
304 -301 -302 0
-305 19 0
-305 66 0
305 -19 -66 0
-306 115 162 0
-306 -115 -162 0
306 -115 162 0
306 115 -162 0
-307 305 0
-307 -306 0
307 -305 306 0
-308 305 0
-308 306 0
308 -305 -306 0
-309 34 0
-309 51 0
309 -34 -51 0
-310 130 147 0
-310 -130 -147 0
310 -130 147 0
310 130 -147 0
-311 309 0
-311 -310 0
311 -309 310 0
-312 309 0
-312 310 0
312 -309 -310 0
-313 1 0
-313 91 0
313 -1 -91 0
-314 97 187 0
-314 -97 -187 0
314 -97 187 0
314 97 -187 0
-315 313 0
-315 -314 0
315 -313 314 0
-316 313 0
-316 314 0
316 -313 -314 0
-317 19 0
-317 67 0
317 -19 -67 0
-318 115 163 0
-318 -115 -163 0
318 -115 163 0
318 115 -163 0
-319 317 0
-319 -318 0
319 -317 318 0
-320 317 0
-320 318 0
320 -317 -318 0
-321 35 0
-321 51 0
321 -35 -51 0
-322 131 147 0
-322 -131 -147 0
322 -131 147 0
322 131 -147 0
-323 321 0
-323 -322 0
323 -321 322 0
-324 321 0
-324 322 0
324 -321 -322 0
-325 1 0
-325 92 0
325 -1 -92 0
-326 97 188 0
-326 -97 -188 0
326 -97 188 0
326 97 -188 0
-327 325 0
-327 -326 0
327 -325 326 0
-328 325 0
-328 326 0
328 -325 -326 0
-329 19 0
-329 68 0
329 -19 -68 0
-330 115 164 0
-330 -115 -164 0
330 -115 164 0
330 115 -164 0
-331 329 0
-331 -330 0
331 -329 330 0
-332 329 0
-332 330 0
332 -329 -330 0
-333 36 0
-333 51 0
333 -36 -51 0
-334 132 147 0
-334 -132 -147 0
334 -132 147 0
334 132 -147 0
-335 333 0
-335 -334 0
335 -333 334 0
-336 333 0
-336 334 0
336 -333 -334 0
-337 1 0
-337 93 0
337 -1 -93 0
-338 97 189 0
-338 -97 -189 0
338 -97 189 0
338 97 -189 0
-339 337 0
-339 -338 0
339 -337 338 0
-340 337 0
-340 338 0
340 -337 -338 0
-341 20 0
-341 65 0
341 -20 -65 0
-342 116 161 0
-342 -116 -161 0
342 -116 161 0
342 116 -161 0
-343 341 0
-343 -342 0
343 -341 342 0
-344 341 0
-344 342 0
344 -341 -342 0
-345 33 0
-345 52 0
345 -33 -52 0
-346 129 148 0
-346 -129 -148 0
346 -129 148 0
346 129 -148 0
-347 345 0
-347 -346 0
347 -345 346 0
-348 345 0
-348 346 0
348 -345 -346 0
-349 1 0
-349 94 0
349 -1 -94 0
-350 97 190 0
-350 -97 -190 0
350 -97 190 0
350 97 -190 0
-351 349 0
-351 -350 0
351 -349 350 0
-352 349 0
-352 350 0
352 -349 -350 0
-353 20 0
-353 66 0
353 -20 -66 0
-354 116 162 0
-354 -116 -162 0
354 -116 162 0
354 116 -162 0
-355 353 0
-355 -354 0
355 -353 354 0
-356 353 0
-356 354 0
356 -353 -354 0
-357 34 0
-357 52 0
357 -34 -52 0
-358 130 148 0
-358 -130 -148 0
358 -130 148 0
358 130 -148 0
-359 357 0
-359 -358 0
359 -357 358 0
-360 357 0
-360 358 0
360 -357 -358 0
-361 1 0
-361 95 0
361 -1 -95 0
-362 97 191 0
-362 -97 -191 0
362 -97 191 0
362 97 -191 0
-363 361 0
-363 -362 0
363 -361 362 0
-364 361 0
-364 362 0
364 -361 -362 0
-365 20 0
-365 67 0
365 -20 -67 0
-366 116 163 0
-366 -116 -163 0
366 -116 163 0
366 116 -163 0
-367 365 0
-367 -366 0
367 -365 366 0
-368 365 0
-368 366 0
368 -365 -366 0
-369 35 0
-369 52 0
369 -35 -52 0
-370 131 148 0
-370 -131 -148 0
370 -131 148 0
370 131 -148 0
-371 369 0
-371 -370 0
371 -369 370 0
-372 369 0
-372 370 0
372 -369 -370 0
-373 1 0
-373 96 0
373 -1 -96 0
-374 97 192 0
-374 -97 -192 0
374 -97 192 0
374 97 -192 0
-375 373 0
-375 -374 0
375 -373 374 0
-376 373 0
-376 374 0
376 -373 -374 0
-377 20 0
-377 68 0
377 -20 -68 0
-378 116 164 0
-378 -116 -164 0
378 -116 164 0
378 116 -164 0
-379 377 0
-379 -378 0
379 -377 378 0
-380 377 0
-380 378 0
380 -377 -378 0
-381 36 0
-381 52 0
381 -36 -52 0
-382 132 148 0
-382 -132 -148 0
382 -132 148 0
382 132 -148 0
-383 381 0
-383 -382 0
383 -381 382 0
-384 381 0
-384 382 0
384 -381 -382 0
-385 2 0
-385 81 0
385 -2 -81 0
-386 98 177 0
-386 -98 -177 0
386 -98 177 0
386 98 -177 0
-387 385 0
-387 -386 0
387 -385 386 0
-388 385 0
-388 386 0
388 -385 -386 0
-389 17 0
-389 69 0
389 -17 -69 0
-390 113 165 0
-390 -113 -165 0
390 -113 165 0
390 113 -165 0
-391 389 0
-391 -390 0
391 -389 390 0
-392 389 0
-392 390 0
392 -389 -390 0
-393 33 0
-393 53 0
393 -33 -53 0
-394 129 149 0
-394 -129 -149 0
394 -129 149 0
394 129 -149 0
-395 393 0
-395 -394 0
395 -393 394 0
-396 393 0
-396 394 0
396 -393 -394 0
-397 2 0
-397 82 0
397 -2 -82 0
-398 98 178 0
-398 -98 -178 0
398 -98 178 0
398 98 -178 0
-399 397 0
-399 -398 0
399 -397 398 0
-400 397 0
-400 398 0
400 -397 -398 0
-401 17 0
-401 70 0
401 -17 -70 0
-402 113 166 0
-402 -113 -166 0
402 -113 166 0
402 113 -166 0
-403 401 0
-403 -402 0
403 -401 402 0
-404 401 0
-404 402 0
404 -401 -402 0
-405 34 0
-405 53 0
405 -34 -53 0
-406 130 149 0
-406 -130 -149 0
406 -130 149 0
406 130 -149 0
-407 405 0
-407 -406 0
407 -405 406 0
-408 405 0
-408 406 0
408 -405 -406 0
-409 2 0
-409 83 0
409 -2 -83 0
-410 98 179 0
-410 -98 -179 0
410 -98 179 0
410 98 -179 0
-411 409 0
-411 -410 0
411 -409 410 0
-412 409 0
-412 410 0
412 -409 -410 0
-413 17 0
-413 71 0
413 -17 -71 0
-414 113 167 0
-414 -113 -167 0
414 -113 167 0
414 113 -167 0
-415 413 0
-415 -414 0
415 -413 414 0
-416 413 0
-416 414 0
416 -413 -414 0
-417 35 0
-417 53 0
417 -35 -53 0
-418 131 149 0
-418 -131 -149 0
418 -131 149 0
418 131 -149 0
-419 417 0
-419 -418 0
419 -417 418 0
-420 417 0
-420 418 0
420 -417 -418 0
-421 2 0
-421 84 0
421 -2 -84 0
-422 98 180 0
-422 -98 -180 0
422 -98 180 0
422 98 -180 0
-423 421 0
-423 -422 0
423 -421 422 0
-424 421 0
-424 422 0
424 -421 -422 0
-425 17 0
-425 72 0
425 -17 -72 0
-426 113 168 0
-426 -113 -168 0
426 -113 168 0
426 113 -168 0
-427 425 0
-427 -426 0
427 -425 426 0
-428 425 0
-428 426 0
428 -425 -426 0
-429 36 0
-429 53 0
429 -36 -53 0
-430 132 149 0
-430 -132 -149 0
430 -132 149 0
430 132 -149 0
-431 429 0
-431 -430 0
431 -429 430 0
-432 429 0
-432 430 0
432 -429 -430 0
-433 2 0
-433 85 0
433 -2 -85 0
-434 98 181 0
-434 -98 -181 0
434 -98 181 0
434 98 -181 0
-435 433 0
-435 -434 0
435 -433 434 0
-436 433 0
-436 434 0
436 -433 -434 0
-437 18 0
-437 69 0
437 -18 -69 0
-438 114 165 0
-438 -114 -165 0
438 -114 165 0
438 114 -165 0
-439 437 0
-439 -438 0
439 -437 438 0
-440 437 0
-440 438 0
440 -437 -438 0
-441 33 0
-441 54 0
441 -33 -54 0
-442 129 150 0
-442 -129 -150 0
442 -129 150 0
442 129 -150 0
-443 441 0
-443 -442 0
443 -441 442 0
-444 441 0
-444 442 0
444 -441 -442 0
-445 2 0
-445 86 0
445 -2 -86 0
-446 98 182 0
-446 -98 -182 0
446 -98 182 0
446 98 -182 0
-447 445 0
-447 -446 0
447 -445 446 0
-448 445 0
-448 446 0
448 -445 -446 0
-449 18 0
-449 70 0
449 -18 -70 0
-450 114 166 0
-450 -114 -166 0
450 -114 166 0
450 114 -166 0
-451 449 0
-451 -450 0
451 -449 450 0
-452 449 0
-452 450 0
452 -449 -450 0
-453 34 0
-453 54 0
453 -34 -54 0
-454 130 150 0
-454 -130 -150 0
454 -130 150 0
454 130 -150 0
-455 453 0
-455 -454 0
455 -453 454 0
-456 453 0
-456 454 0
456 -453 -454 0
-457 2 0
-457 87 0
457 -2 -87 0
-458 98 183 0
-458 -98 -183 0
458 -98 183 0
458 98 -183 0
-459 457 0
-459 -458 0
459 -457 458 0
-460 457 0
-460 458 0
460 -457 -458 0
-461 18 0
-461 71 0
461 -18 -71 0
-462 114 167 0
-462 -114 -167 0
462 -114 167 0
462 114 -167 0
-463 461 0
-463 -462 0
463 -461 462 0
-464 461 0
-464 462 0
464 -461 -462 0
-465 35 0
-465 54 0
465 -35 -54 0
-466 131 150 0
-466 -131 -150 0
466 -131 150 0
466 131 -150 0
-467 465 0
-467 -466 0
467 -465 466 0
-468 465 0
-468 466 0
468 -465 -466 0
-469 2 0
-469 88 0
469 -2 -88 0
-470 98 184 0
-470 -98 -184 0
470 -98 184 0
470 98 -184 0
-471 469 0
-471 -470 0
471 -469 470 0
-472 469 0
-472 470 0
472 -469 -470 0
-473 18 0
-473 72 0
473 -18 -72 0
-474 114 168 0
-474 -114 -168 0
474 -114 168 0
474 114 -168 0
-475 473 0
-475 -474 0
475 -473 474 0
-476 473 0
-476 474 0
476 -473 -474 0
-477 36 0
-477 54 0
477 -36 -54 0
-478 132 150 0
-478 -132 -150 0
478 -132 150 0
478 132 -150 0
-479 477 0
-479 -478 0
479 -477 478 0
-480 477 0
-480 478 0
480 -477 -478 0
-481 2 0
-481 89 0
481 -2 -89 0
-482 98 185 0
-482 -98 -185 0
482 -98 185 0
482 98 -185 0
-483 481 0
-483 -482 0
483 -481 482 0
-484 481 0
-484 482 0
484 -481 -482 0
-485 19 0
-485 69 0
485 -19 -69 0
-486 115 165 0
-486 -115 -165 0
486 -115 165 0
486 115 -165 0
-487 485 0
-487 -486 0
487 -485 486 0
-488 485 0
-488 486 0
488 -485 -486 0
-489 33 0
-489 55 0
489 -33 -55 0
-490 129 151 0
-490 -129 -151 0
490 -129 151 0
490 129 -151 0
-491 489 0
-491 -490 0
491 -489 490 0
-492 489 0
-492 490 0
492 -489 -490 0
-493 2 0
-493 90 0
493 -2 -90 0
-494 98 186 0
-494 -98 -186 0
494 -98 186 0
494 98 -186 0
-495 493 0
-495 -494 0
495 -493 494 0
-496 493 0
-496 494 0
496 -493 -494 0
-497 19 0
-497 70 0
497 -19 -70 0
-498 115 166 0
-498 -115 -166 0
498 -115 166 0
498 115 -166 0
-499 497 0
-499 -498 0
499 -497 498 0
-500 497 0
-500 498 0
500 -497 -498 0
-501 34 0
-501 55 0
501 -34 -55 0
-502 130 151 0
-502 -130 -151 0
502 -130 151 0
502 130 -151 0
-503 501 0
-503 -502 0
503 -501 502 0
-504 501 0
-504 502 0
504 -501 -502 0
-505 2 0
-505 91 0
505 -2 -91 0
-506 98 187 0
-506 -98 -187 0
506 -98 187 0
506 98 -187 0
-507 505 0
-507 -506 0
507 -505 506 0
-508 505 0
-508 506 0
508 -505 -506 0
-509 19 0
-509 71 0
509 -19 -71 0
-510 115 167 0
-510 -115 -167 0
510 -115 167 0
510 115 -167 0
-511 509 0
-511 -510 0
511 -509 510 0
-512 509 0
-512 510 0
512 -509 -510 0
-513 35 0
-513 55 0
513 -35 -55 0
-514 131 151 0
-514 -131 -151 0
514 -131 151 0
514 131 -151 0
-515 513 0
-515 -514 0
515 -513 514 0
-516 513 0
-516 514 0
516 -513 -514 0
-517 2 0
-517 92 0
517 -2 -92 0
-518 98 188 0
-518 -98 -188 0
518 -98 188 0
518 98 -188 0
-519 517 0
-519 -518 0
519 -517 518 0
-520 517 0
-520 518 0
520 -517 -518 0
-521 19 0
-521 72 0
521 -19 -72 0
-522 115 168 0
-522 -115 -168 0
522 -115 168 0
522 115 -168 0
-523 521 0
-523 -522 0
523 -521 522 0
-524 521 0
-524 522 0
524 -521 -522 0
-525 36 0
-525 55 0
525 -36 -55 0
-526 132 151 0
-526 -132 -151 0
526 -132 151 0
526 132 -151 0
-527 525 0
-527 -526 0
527 -525 526 0
-528 525 0
-528 526 0
528 -525 -526 0
-529 2 0
-529 93 0
529 -2 -93 0
-530 98 189 0
-530 -98 -189 0
530 -98 189 0
530 98 -189 0
-531 529 0
-531 -530 0
531 -529 530 0
-532 529 0
-532 530 0
532 -529 -530 0
-533 20 0
-533 69 0
533 -20 -69 0
-534 116 165 0
-534 -116 -165 0
534 -116 165 0
534 116 -165 0
-535 533 0
-535 -534 0
535 -533 534 0
-536 533 0
-536 534 0
536 -533 -534 0
-537 33 0
-537 56 0
537 -33 -56 0
-538 129 152 0
-538 -129 -152 0
538 -129 152 0
538 129 -152 0
-539 537 0
-539 -538 0
539 -537 538 0
-540 537 0
-540 538 0
540 -537 -538 0
-541 2 0
-541 94 0
541 -2 -94 0
-542 98 190 0
-542 -98 -190 0
542 -98 190 0
542 98 -190 0
-543 541 0
-543 -542 0
543 -541 542 0
-544 541 0
-544 542 0
544 -541 -542 0
-545 20 0
-545 70 0
545 -20 -70 0
-546 116 166 0
-546 -116 -166 0
546 -116 166 0
546 116 -166 0
-547 545 0
-547 -546 0
547 -545 546 0
-548 545 0
-548 546 0
548 -545 -546 0
-549 34 0
-549 56 0
549 -34 -56 0
-550 130 152 0
-550 -130 -152 0
550 -130 152 0
550 130 -152 0
-551 549 0
-551 -550 0
551 -549 550 0
-552 549 0
-552 550 0
552 -549 -550 0
-553 2 0
-553 95 0
553 -2 -95 0
-554 98 191 0
-554 -98 -191 0
554 -98 191 0
554 98 -191 0
-555 553 0
-555 -554 0
555 -553 554 0
-556 553 0
-556 554 0
556 -553 -554 0
-557 20 0
-557 71 0
557 -20 -71 0
-558 116 167 0
-558 -116 -167 0
558 -116 167 0
558 116 -167 0
-559 557 0
-559 -558 0
559 -557 558 0
-560 557 0
-560 558 0
560 -557 -558 0
-561 35 0
-561 56 0
561 -35 -56 0
-562 131 152 0
-562 -131 -152 0
562 -131 152 0
562 131 -152 0
-563 561 0
-563 -562 0
563 -561 562 0
-564 561 0
-564 562 0
564 -561 -562 0
-565 2 0
-565 96 0
565 -2 -96 0
-566 98 192 0
-566 -98 -192 0
566 -98 192 0
566 98 -192 0
-567 565 0
-567 -566 0
567 -565 566 0
-568 565 0
-568 566 0
568 -565 -566 0
-569 20 0
-569 72 0
569 -20 -72 0
-570 116 168 0
-570 -116 -168 0
570 -116 168 0
570 116 -168 0
-571 569 0
-571 -570 0
571 -569 570 0
-572 569 0
-572 570 0
572 -569 -570 0
-573 36 0
-573 56 0
573 -36 -56 0
-574 132 152 0
-574 -132 -152 0
574 -132 152 0
574 132 -152 0
-575 573 0
-575 -574 0
575 -573 574 0
-576 573 0
-576 574 0
576 -573 -574 0
-577 3 0
-577 81 0
577 -3 -81 0
-578 99 177 0
-578 -99 -177 0
578 -99 177 0
578 99 -177 0
-579 577 0
-579 -578 0
579 -577 578 0
-580 577 0
-580 578 0
580 -577 -578 0
-581 17 0
-581 73 0
581 -17 -73 0
-582 113 169 0
-582 -113 -169 0
582 -113 169 0
582 113 -169 0
-583 581 0
-583 -582 0
583 -581 582 0
-584 581 0
-584 582 0
584 -581 -582 0
-585 33 0
-585 57 0
585 -33 -57 0
-586 129 153 0
-586 -129 -153 0
586 -129 153 0
586 129 -153 0
-587 585 0
-587 -586 0
587 -585 586 0
-588 585 0
-588 586 0
588 -585 -586 0
-589 3 0
-589 82 0
589 -3 -82 0
-590 99 178 0
-590 -99 -178 0
590 -99 178 0
590 99 -178 0
-591 589 0
-591 -590 0
591 -589 590 0
-592 589 0
-592 590 0
592 -589 -590 0
-593 17 0
-593 74 0
593 -17 -74 0
-594 113 170 0
-594 -113 -170 0
594 -113 170 0
594 113 -170 0
-595 593 0
-595 -594 0
595 -593 594 0
-596 593 0
-596 594 0
596 -593 -594 0
-597 34 0
-597 57 0
597 -34 -57 0
-598 130 153 0
-598 -130 -153 0
598 -130 153 0
598 130 -153 0
-599 597 0
-599 -598 0
599 -597 598 0
-600 597 0
-600 598 0
600 -597 -598 0
-601 3 0
-601 83 0
601 -3 -83 0
-602 99 179 0
-602 -99 -179 0
602 -99 179 0
602 99 -179 0
-603 601 0
-603 -602 0
603 -601 602 0
-604 601 0
-604 602 0
604 -601 -602 0
-605 17 0
-605 75 0
605 -17 -75 0
-606 113 171 0
-606 -113 -171 0
606 -113 171 0
606 113 -171 0
-607 605 0
-607 -606 0
607 -605 606 0
-608 605 0
-608 606 0
608 -605 -606 0
-609 35 0
-609 57 0
609 -35 -57 0
-610 131 153 0
-610 -131 -153 0
610 -131 153 0
610 131 -153 0
-611 609 0
-611 -610 0
611 -609 610 0
-612 609 0
-612 610 0
612 -609 -610 0
-613 3 0
-613 84 0
613 -3 -84 0
-614 99 180 0
-614 -99 -180 0
614 -99 180 0
614 99 -180 0
-615 613 0
-615 -614 0
615 -613 614 0
-616 613 0
-616 614 0
616 -613 -614 0
-617 17 0
-617 76 0
617 -17 -76 0
-618 113 172 0
-618 -113 -172 0
618 -113 172 0
618 113 -172 0
-619 617 0
-619 -618 0
619 -617 618 0
-620 617 0
-620 618 0
620 -617 -618 0
-621 36 0
-621 57 0
621 -36 -57 0
-622 132 153 0
-622 -132 -153 0
622 -132 153 0
622 132 -153 0
-623 621 0
-623 -622 0
623 -621 622 0
-624 621 0
-624 622 0
624 -621 -622 0
-625 3 0
-625 85 0
625 -3 -85 0
-626 99 181 0
-626 -99 -181 0
626 -99 181 0
626 99 -181 0
-627 625 0
-627 -626 0
627 -625 626 0
-628 625 0
-628 626 0
628 -625 -626 0
-629 18 0
-629 73 0
629 -18 -73 0
-630 114 169 0
-630 -114 -169 0
630 -114 169 0
630 114 -169 0
-631 629 0
-631 -630 0
631 -629 630 0
-632 629 0
-632 630 0
632 -629 -630 0
-633 33 0
-633 58 0
633 -33 -58 0
-634 129 154 0
-634 -129 -154 0
634 -129 154 0
634 129 -154 0
-635 633 0
-635 -634 0
635 -633 634 0
-636 633 0
-636 634 0
636 -633 -634 0
-637 3 0
-637 86 0
637 -3 -86 0
-638 99 182 0
-638 -99 -182 0
638 -99 182 0
638 99 -182 0
-639 637 0
-639 -638 0
639 -637 638 0
-640 637 0
-640 638 0
640 -637 -638 0
-641 18 0
-641 74 0
641 -18 -74 0
-642 114 170 0
-642 -114 -170 0
642 -114 170 0
642 114 -170 0
-643 641 0
-643 -642 0
643 -641 642 0
-644 641 0
-644 642 0
644 -641 -642 0
-645 34 0
-645 58 0
645 -34 -58 0
-646 130 154 0
-646 -130 -154 0
646 -130 154 0
646 130 -154 0
-647 645 0
-647 -646 0
647 -645 646 0
-648 645 0
-648 646 0
648 -645 -646 0
-649 3 0
-649 87 0
649 -3 -87 0
-650 99 183 0
-650 -99 -183 0
650 -99 183 0
650 99 -183 0
-651 649 0
-651 -650 0
651 -649 650 0
-652 649 0
-652 650 0
652 -649 -650 0
-653 18 0
-653 75 0
653 -18 -75 0
-654 114 171 0
-654 -114 -171 0
654 -114 171 0
654 114 -171 0
-655 653 0
-655 -654 0
655 -653 654 0
-656 653 0
-656 654 0
656 -653 -654 0
-657 35 0
-657 58 0
657 -35 -58 0
-658 131 154 0
-658 -131 -154 0
658 -131 154 0
658 131 -154 0
-659 657 0
-659 -658 0
659 -657 658 0
-660 657 0
-660 658 0
660 -657 -658 0
-661 3 0
-661 88 0
661 -3 -88 0
-662 99 184 0
-662 -99 -184 0
662 -99 184 0
662 99 -184 0
-663 661 0
-663 -662 0
663 -661 662 0
-664 661 0
-664 662 0
664 -661 -662 0
-665 18 0
-665 76 0
665 -18 -76 0
-666 114 172 0
-666 -114 -172 0
666 -114 172 0
666 114 -172 0
-667 665 0
-667 -666 0
667 -665 666 0
-668 665 0
-668 666 0
668 -665 -666 0
-669 36 0
-669 58 0
669 -36 -58 0
-670 132 154 0
-670 -132 -154 0
670 -132 154 0
670 132 -154 0
-671 669 0
-671 -670 0
671 -669 670 0
-672 669 0
-672 670 0
672 -669 -670 0
-673 3 0
-673 89 0
673 -3 -89 0
-674 99 185 0
-674 -99 -185 0
674 -99 185 0
674 99 -185 0
-675 673 0
-675 -674 0
675 -673 674 0
-676 673 0
-676 674 0
676 -673 -674 0
-677 19 0
-677 73 0
677 -19 -73 0
-678 115 169 0
-678 -115 -169 0
678 -115 169 0
678 115 -169 0
-679 677 0
-679 -678 0
679 -677 678 0
-680 677 0
-680 678 0
680 -677 -678 0
-681 33 0
-681 59 0
681 -33 -59 0
-682 129 155 0
-682 -129 -155 0
682 -129 155 0
682 129 -155 0
-683 681 0
-683 -682 0
683 -681 682 0
-684 681 0
-684 682 0
684 -681 -682 0
-685 3 0
-685 90 0
685 -3 -90 0
-686 99 186 0
-686 -99 -186 0
686 -99 186 0
686 99 -186 0
-687 685 0
-687 -686 0
687 -685 686 0
-688 685 0
-688 686 0
688 -685 -686 0
-689 19 0
-689 74 0
689 -19 -74 0
-690 115 170 0
-690 -115 -170 0
690 -115 170 0
690 115 -170 0
-691 689 0
-691 -690 0
691 -689 690 0
-692 689 0
-692 690 0
692 -689 -690 0
-693 34 0
-693 59 0
693 -34 -59 0
-694 130 155 0
-694 -130 -155 0
694 -130 155 0
694 130 -155 0
-695 693 0
-695 -694 0
695 -693 694 0
-696 693 0
-696 694 0
696 -693 -694 0
-697 3 0
-697 91 0
697 -3 -91 0
-698 99 187 0
-698 -99 -187 0
698 -99 187 0
698 99 -187 0
-699 697 0
-699 -698 0
699 -697 698 0
-700 697 0
-700 698 0
700 -697 -698 0
-701 19 0
-701 75 0
701 -19 -75 0
-702 115 171 0
-702 -115 -171 0
702 -115 171 0
702 115 -171 0
-703 701 0
-703 -702 0
703 -701 702 0
-704 701 0
-704 702 0
704 -701 -702 0
-705 35 0
-705 59 0
705 -35 -59 0
-706 131 155 0
-706 -131 -155 0
706 -131 155 0
706 131 -155 0
-707 705 0
-707 -706 0
707 -705 706 0
-708 705 0
-708 706 0
708 -705 -706 0
-709 3 0
-709 92 0
709 -3 -92 0
-710 99 188 0
-710 -99 -188 0
710 -99 188 0
710 99 -188 0
-711 709 0
-711 -710 0
711 -709 710 0
-712 709 0
-712 710 0
712 -709 -710 0
-713 19 0
-713 76 0
713 -19 -76 0
-714 115 172 0
-714 -115 -172 0
714 -115 172 0
714 115 -172 0
-715 713 0
-715 -714 0
715 -713 714 0
-716 713 0
-716 714 0
716 -713 -714 0
-717 36 0
-717 59 0
717 -36 -59 0
-718 132 155 0
-718 -132 -155 0
718 -132 155 0
718 132 -155 0
-719 717 0
-719 -718 0
719 -717 718 0
-720 717 0
-720 718 0
720 -717 -718 0
-721 3 0
-721 93 0
721 -3 -93 0
-722 99 189 0
-722 -99 -189 0
722 -99 189 0
722 99 -189 0
-723 721 0
-723 -722 0
723 -721 722 0
-724 721 0
-724 722 0
724 -721 -722 0
-725 20 0
-725 73 0
725 -20 -73 0
-726 116 169 0
-726 -116 -169 0
726 -116 169 0
726 116 -169 0
-727 725 0
-727 -726 0
727 -725 726 0
-728 725 0
-728 726 0
728 -725 -726 0
-729 33 0
-729 60 0
729 -33 -60 0
-730 129 156 0
-730 -129 -156 0
730 -129 156 0
730 129 -156 0
-731 729 0
-731 -730 0
731 -729 730 0
-732 729 0
-732 730 0
732 -729 -730 0
-733 3 0
-733 94 0
733 -3 -94 0
-734 99 190 0
-734 -99 -190 0
734 -99 190 0
734 99 -190 0
-735 733 0
-735 -734 0
735 -733 734 0
-736 733 0
-736 734 0
736 -733 -734 0
-737 20 0
-737 74 0
737 -20 -74 0
-738 116 170 0
-738 -116 -170 0
738 -116 170 0
738 116 -170 0
-739 737 0
-739 -738 0
739 -737 738 0
-740 737 0
-740 738 0
740 -737 -738 0
-741 34 0
-741 60 0
741 -34 -60 0
-742 130 156 0
-742 -130 -156 0
742 -130 156 0
742 130 -156 0
-743 741 0
-743 -742 0
743 -741 742 0
-744 741 0
-744 742 0
744 -741 -742 0
-745 3 0
-745 95 0
745 -3 -95 0
-746 99 191 0
-746 -99 -191 0
746 -99 191 0
746 99 -191 0
-747 745 0
-747 -746 0
747 -745 746 0
-748 745 0
-748 746 0
748 -745 -746 0
-749 20 0
-749 75 0
749 -20 -75 0
-750 116 171 0
-750 -116 -171 0
750 -116 171 0
750 116 -171 0
-751 749 0
-751 -750 0
751 -749 750 0
-752 749 0
-752 750 0
752 -749 -750 0
-753 35 0
-753 60 0
753 -35 -60 0
-754 131 156 0
-754 -131 -156 0
754 -131 156 0
754 131 -156 0
-755 753 0
-755 -754 0
755 -753 754 0
-756 753 0
-756 754 0
756 -753 -754 0
-757 3 0
-757 96 0
757 -3 -96 0
-758 99 192 0
-758 -99 -192 0
758 -99 192 0
758 99 -192 0
-759 757 0
-759 -758 0
759 -757 758 0
-760 757 0
-760 758 0
760 -757 -758 0
-761 20 0
-761 76 0
761 -20 -76 0
-762 116 172 0
-762 -116 -172 0
762 -116 172 0
762 116 -172 0
-763 761 0
-763 -762 0
763 -761 762 0
-764 761 0
-764 762 0
764 -761 -762 0
-765 36 0
-765 60 0
765 -36 -60 0
-766 132 156 0
-766 -132 -156 0
766 -132 156 0
766 132 -156 0
-767 765 0
-767 -766 0
767 -765 766 0
-768 765 0
-768 766 0
768 -765 -766 0
-769 4 0
-769 81 0
769 -4 -81 0
-770 100 177 0
-770 -100 -177 0
770 -100 177 0
770 100 -177 0
-771 769 0
-771 -770 0
771 -769 770 0
-772 769 0
-772 770 0
772 -769 -770 0
-773 17 0
-773 77 0
773 -17 -77 0
-774 113 173 0
-774 -113 -173 0
774 -113 173 0
774 113 -173 0
-775 773 0
-775 -774 0
775 -773 774 0
-776 773 0
-776 774 0
776 -773 -774 0
-777 33 0
-777 61 0
777 -33 -61 0
-778 129 157 0
-778 -129 -157 0
778 -129 157 0
778 129 -157 0
-779 777 0
-779 -778 0
779 -777 778 0
-780 777 0
-780 778 0
780 -777 -778 0
-781 4 0
-781 82 0
781 -4 -82 0
-782 100 178 0
-782 -100 -178 0
782 -100 178 0
782 100 -178 0
-783 781 0
-783 -782 0
783 -781 782 0
-784 781 0
-784 782 0
784 -781 -782 0
-785 17 0
-785 78 0
785 -17 -78 0
-786 113 174 0
-786 -113 -174 0
786 -113 174 0
786 113 -174 0
-787 785 0
-787 -786 0
787 -785 786 0
-788 785 0
-788 786 0
788 -785 -786 0
-789 34 0
-789 61 0
789 -34 -61 0
-790 130 157 0
-790 -130 -157 0
790 -130 157 0
790 130 -157 0
-791 789 0
-791 -790 0
791 -789 790 0
-792 789 0
-792 790 0
792 -789 -790 0
-793 4 0
-793 83 0
793 -4 -83 0
-794 100 179 0
-794 -100 -179 0
794 -100 179 0
794 100 -179 0
-795 793 0
-795 -794 0
795 -793 794 0
-796 793 0
-796 794 0
796 -793 -794 0
-797 17 0
-797 79 0
797 -17 -79 0
-798 113 175 0
-798 -113 -175 0
798 -113 175 0
798 113 -175 0
-799 797 0
-799 -798 0
799 -797 798 0
-800 797 0
-800 798 0
800 -797 -798 0
-801 35 0
-801 61 0
801 -35 -61 0
-802 131 157 0
-802 -131 -157 0
802 -131 157 0
802 131 -157 0
-803 801 0
-803 -802 0
803 -801 802 0
-804 801 0
-804 802 0
804 -801 -802 0
-805 4 0
-805 84 0
805 -4 -84 0
-806 100 180 0
-806 -100 -180 0
806 -100 180 0
806 100 -180 0
-807 805 0
-807 -806 0
807 -805 806 0
-808 805 0
-808 806 0
808 -805 -806 0
-809 17 0
-809 80 0
809 -17 -80 0
-810 113 176 0
-810 -113 -176 0
810 -113 176 0
810 113 -176 0
-811 809 0
-811 -810 0
811 -809 810 0
-812 809 0
-812 810 0
812 -809 -810 0
-813 36 0
-813 61 0
813 -36 -61 0
-814 132 157 0
-814 -132 -157 0
814 -132 157 0
814 132 -157 0
-815 813 0
-815 -814 0
815 -813 814 0
-816 813 0
-816 814 0
816 -813 -814 0
-817 4 0
-817 85 0
817 -4 -85 0
-818 100 181 0
-818 -100 -181 0
818 -100 181 0
818 100 -181 0
-819 817 0
-819 -818 0
819 -817 818 0
-820 817 0
-820 818 0
820 -817 -818 0
-821 18 0
-821 77 0
821 -18 -77 0
-822 114 173 0
-822 -114 -173 0
822 -114 173 0
822 114 -173 0
-823 821 0
-823 -822 0
823 -821 822 0
-824 821 0
-824 822 0
824 -821 -822 0
-825 33 0
-825 62 0
825 -33 -62 0
-826 129 158 0
-826 -129 -158 0
826 -129 158 0
826 129 -158 0
-827 825 0
-827 -826 0
827 -825 826 0
-828 825 0
-828 826 0
828 -825 -826 0
-829 4 0
-829 86 0
829 -4 -86 0
-830 100 182 0
-830 -100 -182 0
830 -100 182 0
830 100 -182 0
-831 829 0
-831 -830 0
831 -829 830 0
-832 829 0
-832 830 0
832 -829 -830 0
-833 18 0
-833 78 0
833 -18 -78 0
-834 114 174 0
-834 -114 -174 0
834 -114 174 0
834 114 -174 0
-835 833 0
-835 -834 0
835 -833 834 0
-836 833 0
-836 834 0
836 -833 -834 0
-837 34 0
-837 62 0
837 -34 -62 0
-838 130 158 0
-838 -130 -158 0
838 -130 158 0
838 130 -158 0
-839 837 0
-839 -838 0
839 -837 838 0
-840 837 0
-840 838 0
840 -837 -838 0
-841 4 0
-841 87 0
841 -4 -87 0
-842 100 183 0
-842 -100 -183 0
842 -100 183 0
842 100 -183 0
-843 841 0
-843 -842 0
843 -841 842 0
-844 841 0
-844 842 0
844 -841 -842 0
-845 18 0
-845 79 0
845 -18 -79 0
-846 114 175 0
-846 -114 -175 0
846 -114 175 0
846 114 -175 0
-847 845 0
-847 -846 0
847 -845 846 0
-848 845 0
-848 846 0
848 -845 -846 0
-849 35 0
-849 62 0
849 -35 -62 0
-850 131 158 0
-850 -131 -158 0
850 -131 158 0
850 131 -158 0
-851 849 0
-851 -850 0
851 -849 850 0
-852 849 0
-852 850 0
852 -849 -850 0
-853 4 0
-853 88 0
853 -4 -88 0
-854 100 184 0
-854 -100 -184 0
854 -100 184 0
854 100 -184 0
-855 853 0
-855 -854 0
855 -853 854 0
-856 853 0
-856 854 0
856 -853 -854 0
-857 18 0
-857 80 0
857 -18 -80 0
-858 114 176 0
-858 -114 -176 0
858 -114 176 0
858 114 -176 0
-859 857 0
-859 -858 0
859 -857 858 0
-860 857 0
-860 858 0
860 -857 -858 0
-861 36 0
-861 62 0
861 -36 -62 0
-862 132 158 0
-862 -132 -158 0
862 -132 158 0
862 132 -158 0
-863 861 0
-863 -862 0
863 -861 862 0
-864 861 0
-864 862 0
864 -861 -862 0
-865 4 0
-865 89 0
865 -4 -89 0
-866 100 185 0
-866 -100 -185 0
866 -100 185 0
866 100 -185 0
-867 865 0
-867 -866 0
867 -865 866 0
-868 865 0
-868 866 0
868 -865 -866 0
-869 19 0
-869 77 0
869 -19 -77 0
-870 115 173 0
-870 -115 -173 0
870 -115 173 0
870 115 -173 0
-871 869 0
-871 -870 0
871 -869 870 0
-872 869 0
-872 870 0
872 -869 -870 0
-873 33 0
-873 63 0
873 -33 -63 0
-874 129 159 0
-874 -129 -159 0
874 -129 159 0
874 129 -159 0
-875 873 0
-875 -874 0
875 -873 874 0
-876 873 0
-876 874 0
876 -873 -874 0
-877 4 0
-877 90 0
877 -4 -90 0
-878 100 186 0
-878 -100 -186 0
878 -100 186 0
878 100 -186 0
-879 877 0
-879 -878 0
879 -877 878 0
-880 877 0
-880 878 0
880 -877 -878 0
-881 19 0
-881 78 0
881 -19 -78 0
-882 115 174 0
-882 -115 -174 0
882 -115 174 0
882 115 -174 0
-883 881 0
-883 -882 0
883 -881 882 0
-884 881 0
-884 882 0
884 -881 -882 0
-885 34 0
-885 63 0
885 -34 -63 0
-886 130 159 0
-886 -130 -159 0
886 -130 159 0
886 130 -159 0
-887 885 0
-887 -886 0
887 -885 886 0
-888 885 0
-888 886 0
888 -885 -886 0
-889 4 0
-889 91 0
889 -4 -91 0
-890 100 187 0
-890 -100 -187 0
890 -100 187 0
890 100 -187 0
-891 889 0
-891 -890 0
891 -889 890 0
-892 889 0
-892 890 0
892 -889 -890 0
-893 19 0
-893 79 0
893 -19 -79 0
-894 115 175 0
-894 -115 -175 0
894 -115 175 0
894 115 -175 0
-895 893 0
-895 -894 0
895 -893 894 0
-896 893 0
-896 894 0
896 -893 -894 0
-897 35 0
-897 63 0
897 -35 -63 0
-898 131 159 0
-898 -131 -159 0
898 -131 159 0
898 131 -159 0
-899 897 0
-899 -898 0
899 -897 898 0
-900 897 0
-900 898 0
900 -897 -898 0
-901 4 0
-901 92 0
901 -4 -92 0
-902 100 188 0
-902 -100 -188 0
902 -100 188 0
902 100 -188 0
-903 901 0
-903 -902 0
903 -901 902 0
-904 901 0
-904 902 0
904 -901 -902 0
-905 19 0
-905 80 0
905 -19 -80 0
-906 115 176 0
-906 -115 -176 0
906 -115 176 0
906 115 -176 0
-907 905 0
-907 -906 0
907 -905 906 0
-908 905 0
-908 906 0
908 -905 -906 0
-909 36 0
-909 63 0
909 -36 -63 0
-910 132 159 0
-910 -132 -159 0
910 -132 159 0
910 132 -159 0
-911 909 0
-911 -910 0
911 -909 910 0
-912 909 0
-912 910 0
912 -909 -910 0
-913 4 0
-913 93 0
913 -4 -93 0
-914 100 189 0
-914 -100 -189 0
914 -100 189 0
914 100 -189 0
-915 913 0
-915 -914 0
915 -913 914 0
-916 913 0
-916 914 0
916 -913 -914 0
-917 20 0
-917 77 0
917 -20 -77 0
-918 116 173 0
-918 -116 -173 0
918 -116 173 0
918 116 -173 0
-919 917 0
-919 -918 0
919 -917 918 0
-920 917 0
-920 918 0
920 -917 -918 0
-921 33 0
-921 64 0
921 -33 -64 0
-922 129 160 0
-922 -129 -160 0
922 -129 160 0
922 129 -160 0
-923 921 0
-923 -922 0
923 -921 922 0
-924 921 0
-924 922 0
924 -921 -922 0
-925 4 0
-925 94 0
925 -4 -94 0
-926 100 190 0
-926 -100 -190 0
926 -100 190 0
926 100 -190 0
-927 925 0
-927 -926 0
927 -925 926 0
-928 925 0
-928 926 0
928 -925 -926 0
-929 20 0
-929 78 0
929 -20 -78 0
-930 116 174 0
-930 -116 -174 0
930 -116 174 0
930 116 -174 0
-931 929 0
-931 -930 0
931 -929 930 0
-932 929 0
-932 930 0
932 -929 -930 0
-933 34 0
-933 64 0
933 -34 -64 0
-934 130 160 0
-934 -130 -160 0
934 -130 160 0
934 130 -160 0
-935 933 0
-935 -934 0
935 -933 934 0
-936 933 0
-936 934 0
936 -933 -934 0
-937 4 0
-937 95 0
937 -4 -95 0
-938 100 191 0
-938 -100 -191 0
938 -100 191 0
938 100 -191 0
-939 937 0
-939 -938 0
939 -937 938 0
-940 937 0
-940 938 0
940 -937 -938 0
-941 20 0
-941 79 0
941 -20 -79 0
-942 116 175 0
-942 -116 -175 0
942 -116 175 0
942 116 -175 0
-943 941 0
-943 -942 0
943 -941 942 0
-944 941 0
-944 942 0
944 -941 -942 0
-945 35 0
-945 64 0
945 -35 -64 0
-946 131 160 0
-946 -131 -160 0
946 -131 160 0
946 131 -160 0
-947 945 0
-947 -946 0
947 -945 946 0
-948 945 0
-948 946 0
948 -945 -946 0
-949 4 0
-949 96 0
949 -4 -96 0
-950 100 192 0
-950 -100 -192 0
950 -100 192 0
950 100 -192 0
-951 949 0
-951 -950 0
951 -949 950 0
-952 949 0
-952 950 0
952 -949 -950 0
-953 20 0
-953 80 0
953 -20 -80 0
-954 116 176 0
-954 -116 -176 0
954 -116 176 0
954 116 -176 0
-955 953 0
-955 -954 0
955 -953 954 0
-956 953 0
-956 954 0
956 -953 -954 0
-957 36 0
-957 64 0
957 -36 -64 0
-958 132 160 0
-958 -132 -160 0
958 -132 160 0
958 132 -160 0
-959 957 0
-959 -958 0
959 -957 958 0
-960 957 0
-960 958 0
960 -957 -958 0
-961 5 0
-961 81 0
961 -5 -81 0
-962 101 177 0
-962 -101 -177 0
962 -101 177 0
962 101 -177 0
-963 961 0
-963 -962 0
963 -961 962 0
-964 961 0
-964 962 0
964 -961 -962 0
-965 21 0
-965 65 0
965 -21 -65 0
-966 117 161 0
-966 -117 -161 0
966 -117 161 0
966 117 -161 0
-967 965 0
-967 -966 0
967 -965 966 0
-968 965 0
-968 966 0
968 -965 -966 0
-969 37 0
-969 49 0
969 -37 -49 0
-970 133 145 0
-970 -133 -145 0
970 -133 145 0
970 133 -145 0
-971 969 0
-971 -970 0
971 -969 970 0
-972 969 0
-972 970 0
972 -969 -970 0
-973 5 0
-973 82 0
973 -5 -82 0
-974 101 178 0
-974 -101 -178 0
974 -101 178 0
974 101 -178 0
-975 973 0
-975 -974 0
975 -973 974 0
-976 973 0
-976 974 0
976 -973 -974 0
-977 21 0
-977 66 0
977 -21 -66 0
-978 117 162 0
-978 -117 -162 0
978 -117 162 0
978 117 -162 0
-979 977 0
-979 -978 0
979 -977 978 0
-980 977 0
-980 978 0
980 -977 -978 0
-981 38 0
-981 49 0
981 -38 -49 0
-982 134 145 0
-982 -134 -145 0
982 -134 145 0
982 134 -145 0
-983 981 0
-983 -982 0
983 -981 982 0
-984 981 0
-984 982 0
984 -981 -982 0
-985 5 0
-985 83 0
985 -5 -83 0
-986 101 179 0
-986 -101 -179 0
986 -101 179 0
986 101 -179 0
-987 985 0
-987 -986 0
987 -985 986 0
-988 985 0
-988 986 0
988 -985 -986 0
-989 21 0
-989 67 0
989 -21 -67 0
-990 117 163 0
-990 -117 -163 0
990 -117 163 0
990 117 -163 0
-991 989 0
-991 -990 0
991 -989 990 0
-992 989 0
-992 990 0
992 -989 -990 0
-993 39 0
-993 49 0
993 -39 -49 0
-994 135 145 0
-994 -135 -145 0
994 -135 145 0
994 135 -145 0
-995 993 0
-995 -994 0
995 -993 994 0
-996 993 0
-996 994 0
996 -993 -994 0
-997 5 0
-997 84 0
997 -5 -84 0
-998 101 180 0
-998 -101 -180 0
998 -101 180 0
998 101 -180 0
-999 997 0
-999 -998 0
999 -997 998 0
-1000 997 0
-1000 998 0
1000 -997 -998 0
-1001 21 0
-1001 68 0
1001 -21 -68 0
-1002 117 164 0
-1002 -117 -164 0
1002 -117 164 0
1002 117 -164 0
-1003 1001 0
-1003 -1002 0
1003 -1001 1002 0
-1004 1001 0
-1004 1002 0
1004 -1001 -1002 0
-1005 40 0
-1005 49 0
1005 -40 -49 0
-1006 136 145 0
-1006 -136 -145 0
1006 -136 145 0
1006 136 -145 0
-1007 1005 0
-1007 -1006 0
1007 -1005 1006 0
-1008 1005 0
-1008 1006 0
1008 -1005 -1006 0
-1009 5 0
-1009 85 0
1009 -5 -85 0
-1010 101 181 0
-1010 -101 -181 0
1010 -101 181 0
1010 101 -181 0
-1011 1009 0
-1011 -1010 0
1011 -1009 1010 0
-1012 1009 0
-1012 1010 0
1012 -1009 -1010 0
-1013 22 0
-1013 65 0
1013 -22 -65 0
-1014 118 161 0
-1014 -118 -161 0
1014 -118 161 0
1014 118 -161 0
-1015 1013 0
-1015 -1014 0
1015 -1013 1014 0
-1016 1013 0
-1016 1014 0
1016 -1013 -1014 0
-1017 37 0
-1017 50 0
1017 -37 -50 0
-1018 133 146 0
-1018 -133 -146 0
1018 -133 146 0
1018 133 -146 0
-1019 1017 0
-1019 -1018 0
1019 -1017 1018 0
-1020 1017 0
-1020 1018 0
1020 -1017 -1018 0
-1021 5 0
-1021 86 0
1021 -5 -86 0
-1022 101 182 0
-1022 -101 -182 0
1022 -101 182 0
1022 101 -182 0
-1023 1021 0
-1023 -1022 0
1023 -1021 1022 0
-1024 1021 0
-1024 1022 0
1024 -1021 -1022 0
-1025 22 0
-1025 66 0
1025 -22 -66 0
-1026 118 162 0
-1026 -118 -162 0
1026 -118 162 0
1026 118 -162 0
-1027 1025 0
-1027 -1026 0
1027 -1025 1026 0
-1028 1025 0
-1028 1026 0
1028 -1025 -1026 0
-1029 38 0
-1029 50 0
1029 -38 -50 0
-1030 134 146 0
-1030 -134 -146 0
1030 -134 146 0
1030 134 -146 0
-1031 1029 0
-1031 -1030 0
1031 -1029 1030 0
-1032 1029 0
-1032 1030 0
1032 -1029 -1030 0
-1033 5 0
-1033 87 0
1033 -5 -87 0
-1034 101 183 0
-1034 -101 -183 0
1034 -101 183 0
1034 101 -183 0
-1035 1033 0
-1035 -1034 0
1035 -1033 1034 0
-1036 1033 0
-1036 1034 0
1036 -1033 -1034 0
-1037 22 0
-1037 67 0
1037 -22 -67 0
-1038 118 163 0
-1038 -118 -163 0
1038 -118 163 0
1038 118 -163 0
-1039 1037 0
-1039 -1038 0
1039 -1037 1038 0
-1040 1037 0
-1040 1038 0
1040 -1037 -1038 0
-1041 39 0
-1041 50 0
1041 -39 -50 0
-1042 135 146 0
-1042 -135 -146 0
1042 -135 146 0
1042 135 -146 0
-1043 1041 0
-1043 -1042 0
1043 -1041 1042 0
-1044 1041 0
-1044 1042 0
1044 -1041 -1042 0
-1045 5 0
-1045 88 0
1045 -5 -88 0
-1046 101 184 0
-1046 -101 -184 0
1046 -101 184 0
1046 101 -184 0
-1047 1045 0
-1047 -1046 0
1047 -1045 1046 0
-1048 1045 0
-1048 1046 0
1048 -1045 -1046 0
-1049 22 0
-1049 68 0
1049 -22 -68 0
-1050 118 164 0
-1050 -118 -164 0
1050 -118 164 0
1050 118 -164 0
-1051 1049 0
-1051 -1050 0
1051 -1049 1050 0
-1052 1049 0
-1052 1050 0
1052 -1049 -1050 0
-1053 40 0
-1053 50 0
1053 -40 -50 0
-1054 136 146 0
-1054 -136 -146 0
1054 -136 146 0
1054 136 -146 0
-1055 1053 0
-1055 -1054 0
1055 -1053 1054 0
-1056 1053 0
-1056 1054 0
1056 -1053 -1054 0
-1057 5 0
-1057 89 0
1057 -5 -89 0
-1058 101 185 0
-1058 -101 -185 0
1058 -101 185 0
1058 101 -185 0
-1059 1057 0
-1059 -1058 0
1059 -1057 1058 0
-1060 1057 0
-1060 1058 0
1060 -1057 -1058 0
-1061 23 0
-1061 65 0
1061 -23 -65 0
-1062 119 161 0
-1062 -119 -161 0
1062 -119 161 0
1062 119 -161 0
-1063 1061 0
-1063 -1062 0
1063 -1061 1062 0
-1064 1061 0
-1064 1062 0
1064 -1061 -1062 0
-1065 37 0
-1065 51 0
1065 -37 -51 0
-1066 133 147 0
-1066 -133 -147 0
1066 -133 147 0
1066 133 -147 0
-1067 1065 0
-1067 -1066 0
1067 -1065 1066 0
-1068 1065 0
-1068 1066 0
1068 -1065 -1066 0
-1069 5 0
-1069 90 0
1069 -5 -90 0
-1070 101 186 0
-1070 -101 -186 0
1070 -101 186 0
1070 101 -186 0
-1071 1069 0
-1071 -1070 0
1071 -1069 1070 0
-1072 1069 0
-1072 1070 0
1072 -1069 -1070 0
-1073 23 0
-1073 66 0
1073 -23 -66 0
-1074 119 162 0
-1074 -119 -162 0
1074 -119 162 0
1074 119 -162 0
-1075 1073 0
-1075 -1074 0
1075 -1073 1074 0
-1076 1073 0
-1076 1074 0
1076 -1073 -1074 0
-1077 38 0
-1077 51 0
1077 -38 -51 0
-1078 134 147 0
-1078 -134 -147 0
1078 -134 147 0
1078 134 -147 0
-1079 1077 0
-1079 -1078 0
1079 -1077 1078 0
-1080 1077 0
-1080 1078 0
1080 -1077 -1078 0
-1081 5 0
-1081 91 0
1081 -5 -91 0
-1082 101 187 0
-1082 -101 -187 0
1082 -101 187 0
1082 101 -187 0
-1083 1081 0
-1083 -1082 0
1083 -1081 1082 0
-1084 1081 0
-1084 1082 0
1084 -1081 -1082 0
-1085 23 0
-1085 67 0
1085 -23 -67 0
-1086 119 163 0
-1086 -119 -163 0
1086 -119 163 0
1086 119 -163 0
-1087 1085 0
-1087 -1086 0
1087 -1085 1086 0
-1088 1085 0
-1088 1086 0
1088 -1085 -1086 0
-1089 39 0
-1089 51 0
1089 -39 -51 0
-1090 135 147 0
-1090 -135 -147 0
1090 -135 147 0
1090 135 -147 0
-1091 1089 0
-1091 -1090 0
1091 -1089 1090 0
-1092 1089 0
-1092 1090 0
1092 -1089 -1090 0
-1093 5 0
-1093 92 0
1093 -5 -92 0
-1094 101 188 0
-1094 -101 -188 0
1094 -101 188 0
1094 101 -188 0
-1095 1093 0
-1095 -1094 0
1095 -1093 1094 0
-1096 1093 0
-1096 1094 0
1096 -1093 -1094 0
-1097 23 0
-1097 68 0
1097 -23 -68 0
-1098 119 164 0
-1098 -119 -164 0
1098 -119 164 0
1098 119 -164 0
-1099 1097 0
-1099 -1098 0
1099 -1097 1098 0
-1100 1097 0
-1100 1098 0
1100 -1097 -1098 0
-1101 40 0
-1101 51 0
1101 -40 -51 0
-1102 136 147 0
-1102 -136 -147 0
1102 -136 147 0
1102 136 -147 0
-1103 1101 0
-1103 -1102 0
1103 -1101 1102 0
-1104 1101 0
-1104 1102 0
1104 -1101 -1102 0
-1105 5 0
-1105 93 0
1105 -5 -93 0
-1106 101 189 0
-1106 -101 -189 0
1106 -101 189 0
1106 101 -189 0
-1107 1105 0
-1107 -1106 0
1107 -1105 1106 0
-1108 1105 0
-1108 1106 0
1108 -1105 -1106 0
-1109 24 0
-1109 65 0
1109 -24 -65 0
-1110 120 161 0
-1110 -120 -161 0
1110 -120 161 0
1110 120 -161 0
-1111 1109 0
-1111 -1110 0
1111 -1109 1110 0
-1112 1109 0
-1112 1110 0
1112 -1109 -1110 0
-1113 37 0
-1113 52 0
1113 -37 -52 0
-1114 133 148 0
-1114 -133 -148 0
1114 -133 148 0
1114 133 -148 0
-1115 1113 0
-1115 -1114 0
1115 -1113 1114 0
-1116 1113 0
-1116 1114 0
1116 -1113 -1114 0
-1117 5 0
-1117 94 0
1117 -5 -94 0
-1118 101 190 0
-1118 -101 -190 0
1118 -101 190 0
1118 101 -190 0
-1119 1117 0
-1119 -1118 0
1119 -1117 1118 0
-1120 1117 0
-1120 1118 0
1120 -1117 -1118 0
-1121 24 0
-1121 66 0
1121 -24 -66 0
-1122 120 162 0
-1122 -120 -162 0
1122 -120 162 0
1122 120 -162 0
-1123 1121 0
-1123 -1122 0
1123 -1121 1122 0
-1124 1121 0
-1124 1122 0
1124 -1121 -1122 0
-1125 38 0
-1125 52 0
1125 -38 -52 0
-1126 134 148 0
-1126 -134 -148 0
1126 -134 148 0
1126 134 -148 0
-1127 1125 0
-1127 -1126 0
1127 -1125 1126 0
-1128 1125 0
-1128 1126 0
1128 -1125 -1126 0
-1129 5 0
-1129 95 0
1129 -5 -95 0
-1130 101 191 0
-1130 -101 -191 0
1130 -101 191 0
1130 101 -191 0
-1131 1129 0
-1131 -1130 0
1131 -1129 1130 0
-1132 1129 0
-1132 1130 0
1132 -1129 -1130 0
-1133 24 0
-1133 67 0
1133 -24 -67 0
-1134 120 163 0
-1134 -120 -163 0
1134 -120 163 0
1134 120 -163 0
-1135 1133 0
-1135 -1134 0
1135 -1133 1134 0
-1136 1133 0
-1136 1134 0
1136 -1133 -1134 0
-1137 39 0
-1137 52 0
1137 -39 -52 0
-1138 135 148 0
-1138 -135 -148 0
1138 -135 148 0
1138 135 -148 0
-1139 1137 0
-1139 -1138 0
1139 -1137 1138 0
-1140 1137 0
-1140 1138 0
1140 -1137 -1138 0
-1141 5 0
-1141 96 0
1141 -5 -96 0
-1142 101 192 0
-1142 -101 -192 0
1142 -101 192 0
1142 101 -192 0
-1143 1141 0
-1143 -1142 0
1143 -1141 1142 0
-1144 1141 0
-1144 1142 0
1144 -1141 -1142 0
-1145 24 0
-1145 68 0
1145 -24 -68 0
-1146 120 164 0
-1146 -120 -164 0
1146 -120 164 0
1146 120 -164 0
-1147 1145 0
-1147 -1146 0
1147 -1145 1146 0
-1148 1145 0
-1148 1146 0
1148 -1145 -1146 0
-1149 40 0
-1149 52 0
1149 -40 -52 0
-1150 136 148 0
-1150 -136 -148 0
1150 -136 148 0
1150 136 -148 0
-1151 1149 0
-1151 -1150 0
1151 -1149 1150 0
-1152 1149 0
-1152 1150 0
1152 -1149 -1150 0
-1153 6 0
-1153 81 0
1153 -6 -81 0
-1154 102 177 0
-1154 -102 -177 0
1154 -102 177 0
1154 102 -177 0
-1155 1153 0
-1155 -1154 0
1155 -1153 1154 0
-1156 1153 0
-1156 1154 0
1156 -1153 -1154 0
-1157 21 0
-1157 69 0
1157 -21 -69 0
-1158 117 165 0
-1158 -117 -165 0
1158 -117 165 0
1158 117 -165 0
-1159 1157 0
-1159 -1158 0
1159 -1157 1158 0
-1160 1157 0
-1160 1158 0
1160 -1157 -1158 0
-1161 37 0
-1161 53 0
1161 -37 -53 0
-1162 133 149 0
-1162 -133 -149 0
1162 -133 149 0
1162 133 -149 0
-1163 1161 0
-1163 -1162 0
1163 -1161 1162 0
-1164 1161 0
-1164 1162 0
1164 -1161 -1162 0
-1165 6 0
-1165 82 0
1165 -6 -82 0
-1166 102 178 0
-1166 -102 -178 0
1166 -102 178 0
1166 102 -178 0
-1167 1165 0
-1167 -1166 0
1167 -1165 1166 0
-1168 1165 0
-1168 1166 0
1168 -1165 -1166 0
-1169 21 0
-1169 70 0
1169 -21 -70 0
-1170 117 166 0
-1170 -117 -166 0
1170 -117 166 0
1170 117 -166 0
-1171 1169 0
-1171 -1170 0
1171 -1169 1170 0
-1172 1169 0
-1172 1170 0
1172 -1169 -1170 0
-1173 38 0
-1173 53 0
1173 -38 -53 0
-1174 134 149 0
-1174 -134 -149 0
1174 -134 149 0
1174 134 -149 0
-1175 1173 0
-1175 -1174 0
1175 -1173 1174 0
-1176 1173 0
-1176 1174 0
1176 -1173 -1174 0
-1177 6 0
-1177 83 0
1177 -6 -83 0
-1178 102 179 0
-1178 -102 -179 0
1178 -102 179 0
1178 102 -179 0
-1179 1177 0
-1179 -1178 0
1179 -1177 1178 0
-1180 1177 0
-1180 1178 0
1180 -1177 -1178 0
-1181 21 0
-1181 71 0
1181 -21 -71 0
-1182 117 167 0
-1182 -117 -167 0
1182 -117 167 0
1182 117 -167 0
-1183 1181 0
-1183 -1182 0
1183 -1181 1182 0
-1184 1181 0
-1184 1182 0
1184 -1181 -1182 0
-1185 39 0
-1185 53 0
1185 -39 -53 0
-1186 135 149 0
-1186 -135 -149 0
1186 -135 149 0
1186 135 -149 0
-1187 1185 0
-1187 -1186 0
1187 -1185 1186 0
-1188 1185 0
-1188 1186 0
1188 -1185 -1186 0
-1189 6 0
-1189 84 0
1189 -6 -84 0
-1190 102 180 0
-1190 -102 -180 0
1190 -102 180 0
1190 102 -180 0
-1191 1189 0
-1191 -1190 0
1191 -1189 1190 0
-1192 1189 0
-1192 1190 0
1192 -1189 -1190 0
-1193 21 0
-1193 72 0
1193 -21 -72 0
-1194 117 168 0
-1194 -117 -168 0
1194 -117 168 0
1194 117 -168 0
-1195 1193 0
-1195 -1194 0
1195 -1193 1194 0
-1196 1193 0
-1196 1194 0
1196 -1193 -1194 0
-1197 40 0
-1197 53 0
1197 -40 -53 0
-1198 136 149 0
-1198 -136 -149 0
1198 -136 149 0
1198 136 -149 0
-1199 1197 0
-1199 -1198 0
1199 -1197 1198 0
-1200 1197 0
-1200 1198 0
1200 -1197 -1198 0
-1201 6 0
-1201 85 0
1201 -6 -85 0
-1202 102 181 0
-1202 -102 -181 0
1202 -102 181 0
1202 102 -181 0
-1203 1201 0
-1203 -1202 0
1203 -1201 1202 0
-1204 1201 0
-1204 1202 0
1204 -1201 -1202 0
-1205 22 0
-1205 69 0
1205 -22 -69 0
-1206 118 165 0
-1206 -118 -165 0
1206 -118 165 0
1206 118 -165 0
-1207 1205 0
-1207 -1206 0
1207 -1205 1206 0
-1208 1205 0
-1208 1206 0
1208 -1205 -1206 0
-1209 37 0
-1209 54 0
1209 -37 -54 0
-1210 133 150 0
-1210 -133 -150 0
1210 -133 150 0
1210 133 -150 0
-1211 1209 0
-1211 -1210 0
1211 -1209 1210 0
-1212 1209 0
-1212 1210 0
1212 -1209 -1210 0
-1213 6 0
-1213 86 0
1213 -6 -86 0
-1214 102 182 0
-1214 -102 -182 0
1214 -102 182 0
1214 102 -182 0
-1215 1213 0
-1215 -1214 0
1215 -1213 1214 0
-1216 1213 0
-1216 1214 0
1216 -1213 -1214 0
-1217 22 0
-1217 70 0
1217 -22 -70 0
-1218 118 166 0
-1218 -118 -166 0
1218 -118 166 0
1218 118 -166 0
-1219 1217 0
-1219 -1218 0
1219 -1217 1218 0
-1220 1217 0
-1220 1218 0
1220 -1217 -1218 0
-1221 38 0
-1221 54 0
1221 -38 -54 0
-1222 134 150 0
-1222 -134 -150 0
1222 -134 150 0
1222 134 -150 0
-1223 1221 0
-1223 -1222 0
1223 -1221 1222 0
-1224 1221 0
-1224 1222 0
1224 -1221 -1222 0
-1225 6 0
-1225 87 0
1225 -6 -87 0
-1226 102 183 0
-1226 -102 -183 0
1226 -102 183 0
1226 102 -183 0
-1227 1225 0
-1227 -1226 0
1227 -1225 1226 0
-1228 1225 0
-1228 1226 0
1228 -1225 -1226 0
-1229 22 0
-1229 71 0
1229 -22 -71 0
-1230 118 167 0
-1230 -118 -167 0
1230 -118 167 0
1230 118 -167 0
-1231 1229 0
-1231 -1230 0
1231 -1229 1230 0
-1232 1229 0
-1232 1230 0
1232 -1229 -1230 0
-1233 39 0
-1233 54 0
1233 -39 -54 0
-1234 135 150 0
-1234 -135 -150 0
1234 -135 150 0
1234 135 -150 0
-1235 1233 0
-1235 -1234 0
1235 -1233 1234 0
-1236 1233 0
-1236 1234 0
1236 -1233 -1234 0
-1237 6 0
-1237 88 0
1237 -6 -88 0
-1238 102 184 0
-1238 -102 -184 0
1238 -102 184 0
1238 102 -184 0
-1239 1237 0
-1239 -1238 0
1239 -1237 1238 0
-1240 1237 0
-1240 1238 0
1240 -1237 -1238 0
-1241 22 0
-1241 72 0
1241 -22 -72 0
-1242 118 168 0
-1242 -118 -168 0
1242 -118 168 0
1242 118 -168 0
-1243 1241 0
-1243 -1242 0
1243 -1241 1242 0
-1244 1241 0
-1244 1242 0
1244 -1241 -1242 0
-1245 40 0
-1245 54 0
1245 -40 -54 0
-1246 136 150 0
-1246 -136 -150 0
1246 -136 150 0
1246 136 -150 0
-1247 1245 0
-1247 -1246 0
1247 -1245 1246 0
-1248 1245 0
-1248 1246 0
1248 -1245 -1246 0
-1249 6 0
-1249 89 0
1249 -6 -89 0
-1250 102 185 0
-1250 -102 -185 0
1250 -102 185 0
1250 102 -185 0
-1251 1249 0
-1251 -1250 0
1251 -1249 1250 0
-1252 1249 0
-1252 1250 0
1252 -1249 -1250 0
-1253 23 0
-1253 69 0
1253 -23 -69 0
-1254 119 165 0
-1254 -119 -165 0
1254 -119 165 0
1254 119 -165 0
-1255 1253 0
-1255 -1254 0
1255 -1253 1254 0
-1256 1253 0
-1256 1254 0
1256 -1253 -1254 0
-1257 37 0
-1257 55 0
1257 -37 -55 0
-1258 133 151 0
-1258 -133 -151 0
1258 -133 151 0
1258 133 -151 0
-1259 1257 0
-1259 -1258 0
1259 -1257 1258 0
-1260 1257 0
-1260 1258 0
1260 -1257 -1258 0
-1261 6 0
-1261 90 0
1261 -6 -90 0
-1262 102 186 0
-1262 -102 -186 0
1262 -102 186 0
1262 102 -186 0
-1263 1261 0
-1263 -1262 0
1263 -1261 1262 0
-1264 1261 0
-1264 1262 0
1264 -1261 -1262 0
-1265 23 0
-1265 70 0
1265 -23 -70 0
-1266 119 166 0
-1266 -119 -166 0
1266 -119 166 0
1266 119 -166 0
-1267 1265 0
-1267 -1266 0
1267 -1265 1266 0
-1268 1265 0
-1268 1266 0
1268 -1265 -1266 0
-1269 38 0
-1269 55 0
1269 -38 -55 0
-1270 134 151 0
-1270 -134 -151 0
1270 -134 151 0
1270 134 -151 0
-1271 1269 0
-1271 -1270 0
1271 -1269 1270 0
-1272 1269 0
-1272 1270 0
1272 -1269 -1270 0
-1273 6 0
-1273 91 0
1273 -6 -91 0
-1274 102 187 0
-1274 -102 -187 0
1274 -102 187 0
1274 102 -187 0
-1275 1273 0
-1275 -1274 0
1275 -1273 1274 0
-1276 1273 0
-1276 1274 0
1276 -1273 -1274 0
-1277 23 0
-1277 71 0
1277 -23 -71 0
-1278 119 167 0
-1278 -119 -167 0
1278 -119 167 0
1278 119 -167 0
-1279 1277 0
-1279 -1278 0
1279 -1277 1278 0
-1280 1277 0
-1280 1278 0
1280 -1277 -1278 0
-1281 39 0
-1281 55 0
1281 -39 -55 0
-1282 135 151 0
-1282 -135 -151 0
1282 -135 151 0
1282 135 -151 0
-1283 1281 0
-1283 -1282 0
1283 -1281 1282 0
-1284 1281 0
-1284 1282 0
1284 -1281 -1282 0
-1285 6 0
-1285 92 0
1285 -6 -92 0
-1286 102 188 0
-1286 -102 -188 0
1286 -102 188 0
1286 102 -188 0
-1287 1285 0
-1287 -1286 0
1287 -1285 1286 0
-1288 1285 0
-1288 1286 0
1288 -1285 -1286 0
-1289 23 0
-1289 72 0
1289 -23 -72 0
-1290 119 168 0
-1290 -119 -168 0
1290 -119 168 0
1290 119 -168 0
-1291 1289 0
-1291 -1290 0
1291 -1289 1290 0
-1292 1289 0
-1292 1290 0
1292 -1289 -1290 0
-1293 40 0
-1293 55 0
1293 -40 -55 0
-1294 136 151 0
-1294 -136 -151 0
1294 -136 151 0
1294 136 -151 0
-1295 1293 0
-1295 -1294 0
1295 -1293 1294 0
-1296 1293 0
-1296 1294 0
1296 -1293 -1294 0
-1297 6 0
-1297 93 0
1297 -6 -93 0
-1298 102 189 0
-1298 -102 -189 0
1298 -102 189 0
1298 102 -189 0
-1299 1297 0
-1299 -1298 0
1299 -1297 1298 0
-1300 1297 0
-1300 1298 0
1300 -1297 -1298 0
-1301 24 0
-1301 69 0
1301 -24 -69 0
-1302 120 165 0
-1302 -120 -165 0
1302 -120 165 0
1302 120 -165 0
-1303 1301 0
-1303 -1302 0
1303 -1301 1302 0
-1304 1301 0
-1304 1302 0
1304 -1301 -1302 0
-1305 37 0
-1305 56 0
1305 -37 -56 0
-1306 133 152 0
-1306 -133 -152 0
1306 -133 152 0
1306 133 -152 0
-1307 1305 0
-1307 -1306 0
1307 -1305 1306 0
-1308 1305 0
-1308 1306 0
1308 -1305 -1306 0
-1309 6 0
-1309 94 0
1309 -6 -94 0
-1310 102 190 0
-1310 -102 -190 0
1310 -102 190 0
1310 102 -190 0
-1311 1309 0
-1311 -1310 0
1311 -1309 1310 0
-1312 1309 0
-1312 1310 0
1312 -1309 -1310 0
-1313 24 0
-1313 70 0
1313 -24 -70 0
-1314 120 166 0
-1314 -120 -166 0
1314 -120 166 0
1314 120 -166 0
-1315 1313 0
-1315 -1314 0
1315 -1313 1314 0
-1316 1313 0
-1316 1314 0
1316 -1313 -1314 0
-1317 38 0
-1317 56 0
1317 -38 -56 0
-1318 134 152 0
-1318 -134 -152 0
1318 -134 152 0
1318 134 -152 0
-1319 1317 0
-1319 -1318 0
1319 -1317 1318 0
-1320 1317 0
-1320 1318 0
1320 -1317 -1318 0
-1321 6 0
-1321 95 0
1321 -6 -95 0
-1322 102 191 0
-1322 -102 -191 0
1322 -102 191 0
1322 102 -191 0
-1323 1321 0
-1323 -1322 0
1323 -1321 1322 0
-1324 1321 0
-1324 1322 0
1324 -1321 -1322 0
-1325 24 0
-1325 71 0
1325 -24 -71 0
-1326 120 167 0
-1326 -120 -167 0
1326 -120 167 0
1326 120 -167 0
-1327 1325 0
-1327 -1326 0
1327 -1325 1326 0
-1328 1325 0
-1328 1326 0
1328 -1325 -1326 0
-1329 39 0
-1329 56 0
1329 -39 -56 0
-1330 135 152 0
-1330 -135 -152 0
1330 -135 152 0
1330 135 -152 0
-1331 1329 0
-1331 -1330 0
1331 -1329 1330 0
-1332 1329 0
-1332 1330 0
1332 -1329 -1330 0
-1333 6 0
-1333 96 0
1333 -6 -96 0
-1334 102 192 0
-1334 -102 -192 0
1334 -102 192 0
1334 102 -192 0
-1335 1333 0
-1335 -1334 0
1335 -1333 1334 0
-1336 1333 0
-1336 1334 0
1336 -1333 -1334 0
-1337 24 0
-1337 72 0
1337 -24 -72 0
-1338 120 168 0
-1338 -120 -168 0
1338 -120 168 0
1338 120 -168 0
-1339 1337 0
-1339 -1338 0
1339 -1337 1338 0
-1340 1337 0
-1340 1338 0
1340 -1337 -1338 0
-1341 40 0
-1341 56 0
1341 -40 -56 0
-1342 136 152 0
-1342 -136 -152 0
1342 -136 152 0
1342 136 -152 0
-1343 1341 0
-1343 -1342 0
1343 -1341 1342 0
-1344 1341 0
-1344 1342 0
1344 -1341 -1342 0
-1345 7 0
-1345 81 0
1345 -7 -81 0
-1346 103 177 0
-1346 -103 -177 0
1346 -103 177 0
1346 103 -177 0
-1347 1345 0
-1347 -1346 0
1347 -1345 1346 0
-1348 1345 0
-1348 1346 0
1348 -1345 -1346 0
-1349 21 0
-1349 73 0
1349 -21 -73 0
-1350 117 169 0
-1350 -117 -169 0
1350 -117 169 0
1350 117 -169 0
-1351 1349 0
-1351 -1350 0
1351 -1349 1350 0
-1352 1349 0
-1352 1350 0
1352 -1349 -1350 0
-1353 37 0
-1353 57 0
1353 -37 -57 0
-1354 133 153 0
-1354 -133 -153 0
1354 -133 153 0
1354 133 -153 0
-1355 1353 0
-1355 -1354 0
1355 -1353 1354 0
-1356 1353 0
-1356 1354 0
1356 -1353 -1354 0
-1357 7 0
-1357 82 0
1357 -7 -82 0
-1358 103 178 0
-1358 -103 -178 0
1358 -103 178 0
1358 103 -178 0
-1359 1357 0
-1359 -1358 0
1359 -1357 1358 0
-1360 1357 0
-1360 1358 0
1360 -1357 -1358 0
-1361 21 0
-1361 74 0
1361 -21 -74 0
-1362 117 170 0
-1362 -117 -170 0
1362 -117 170 0
1362 117 -170 0
-1363 1361 0
-1363 -1362 0
1363 -1361 1362 0
-1364 1361 0
-1364 1362 0
1364 -1361 -1362 0
-1365 38 0
-1365 57 0
1365 -38 -57 0
-1366 134 153 0
-1366 -134 -153 0
1366 -134 153 0
1366 134 -153 0
-1367 1365 0
-1367 -1366 0
1367 -1365 1366 0
-1368 1365 0
-1368 1366 0
1368 -1365 -1366 0
-1369 7 0
-1369 83 0
1369 -7 -83 0
-1370 103 179 0
-1370 -103 -179 0
1370 -103 179 0
1370 103 -179 0
-1371 1369 0
-1371 -1370 0
1371 -1369 1370 0
-1372 1369 0
-1372 1370 0
1372 -1369 -1370 0
-1373 21 0
-1373 75 0
1373 -21 -75 0
-1374 117 171 0
-1374 -117 -171 0
1374 -117 171 0
1374 117 -171 0
-1375 1373 0
-1375 -1374 0
1375 -1373 1374 0
-1376 1373 0
-1376 1374 0
1376 -1373 -1374 0
-1377 39 0
-1377 57 0
1377 -39 -57 0
-1378 135 153 0
-1378 -135 -153 0
1378 -135 153 0
1378 135 -153 0
-1379 1377 0
-1379 -1378 0
1379 -1377 1378 0
-1380 1377 0
-1380 1378 0
1380 -1377 -1378 0
-1381 7 0
-1381 84 0
1381 -7 -84 0
-1382 103 180 0
-1382 -103 -180 0
1382 -103 180 0
1382 103 -180 0
-1383 1381 0
-1383 -1382 0
1383 -1381 1382 0
-1384 1381 0
-1384 1382 0
1384 -1381 -1382 0
-1385 21 0
-1385 76 0
1385 -21 -76 0
-1386 117 172 0
-1386 -117 -172 0
1386 -117 172 0
1386 117 -172 0
-1387 1385 0
-1387 -1386 0
1387 -1385 1386 0
-1388 1385 0
-1388 1386 0
1388 -1385 -1386 0
-1389 40 0
-1389 57 0
1389 -40 -57 0
-1390 136 153 0
-1390 -136 -153 0
1390 -136 153 0
1390 136 -153 0
-1391 1389 0
-1391 -1390 0
1391 -1389 1390 0
-1392 1389 0
-1392 1390 0
1392 -1389 -1390 0
-1393 7 0
-1393 85 0
1393 -7 -85 0
-1394 103 181 0
-1394 -103 -181 0
1394 -103 181 0
1394 103 -181 0
-1395 1393 0
-1395 -1394 0
1395 -1393 1394 0
-1396 1393 0
-1396 1394 0
1396 -1393 -1394 0
-1397 22 0
-1397 73 0
1397 -22 -73 0
-1398 118 169 0
-1398 -118 -169 0
1398 -118 169 0
1398 118 -169 0
-1399 1397 0
-1399 -1398 0
1399 -1397 1398 0
-1400 1397 0
-1400 1398 0
1400 -1397 -1398 0
-1401 37 0
-1401 58 0
1401 -37 -58 0
-1402 133 154 0
-1402 -133 -154 0
1402 -133 154 0
1402 133 -154 0
-1403 1401 0
-1403 -1402 0
1403 -1401 1402 0
-1404 1401 0
-1404 1402 0
1404 -1401 -1402 0
-1405 7 0
-1405 86 0
1405 -7 -86 0
-1406 103 182 0
-1406 -103 -182 0
1406 -103 182 0
1406 103 -182 0
-1407 1405 0
-1407 -1406 0
1407 -1405 1406 0
-1408 1405 0
-1408 1406 0
1408 -1405 -1406 0
-1409 22 0
-1409 74 0
1409 -22 -74 0
-1410 118 170 0
-1410 -118 -170 0
1410 -118 170 0
1410 118 -170 0
-1411 1409 0
-1411 -1410 0
1411 -1409 1410 0
-1412 1409 0
-1412 1410 0
1412 -1409 -1410 0
-1413 38 0
-1413 58 0
1413 -38 -58 0
-1414 134 154 0
-1414 -134 -154 0
1414 -134 154 0
1414 134 -154 0
-1415 1413 0
-1415 -1414 0
1415 -1413 1414 0
-1416 1413 0
-1416 1414 0
1416 -1413 -1414 0
-1417 7 0
-1417 87 0
1417 -7 -87 0
-1418 103 183 0
-1418 -103 -183 0
1418 -103 183 0
1418 103 -183 0
-1419 1417 0
-1419 -1418 0
1419 -1417 1418 0
-1420 1417 0
-1420 1418 0
1420 -1417 -1418 0
-1421 22 0
-1421 75 0
1421 -22 -75 0
-1422 118 171 0
-1422 -118 -171 0
1422 -118 171 0
1422 118 -171 0
-1423 1421 0
-1423 -1422 0
1423 -1421 1422 0
-1424 1421 0
-1424 1422 0
1424 -1421 -1422 0
-1425 39 0
-1425 58 0
1425 -39 -58 0
-1426 135 154 0
-1426 -135 -154 0
1426 -135 154 0
1426 135 -154 0
-1427 1425 0
-1427 -1426 0
1427 -1425 1426 0
-1428 1425 0
-1428 1426 0
1428 -1425 -1426 0
-1429 7 0
-1429 88 0
1429 -7 -88 0
-1430 103 184 0
-1430 -103 -184 0
1430 -103 184 0
1430 103 -184 0
-1431 1429 0
-1431 -1430 0
1431 -1429 1430 0
-1432 1429 0
-1432 1430 0
1432 -1429 -1430 0
-1433 22 0
-1433 76 0
1433 -22 -76 0
-1434 118 172 0
-1434 -118 -172 0
1434 -118 172 0
1434 118 -172 0
-1435 1433 0
-1435 -1434 0
1435 -1433 1434 0
-1436 1433 0
-1436 1434 0
1436 -1433 -1434 0
-1437 40 0
-1437 58 0
1437 -40 -58 0
-1438 136 154 0
-1438 -136 -154 0
1438 -136 154 0
1438 136 -154 0
-1439 1437 0
-1439 -1438 0
1439 -1437 1438 0
-1440 1437 0
-1440 1438 0
1440 -1437 -1438 0
-1441 7 0
-1441 89 0
1441 -7 -89 0
-1442 103 185 0
-1442 -103 -185 0
1442 -103 185 0
1442 103 -185 0
-1443 1441 0
-1443 -1442 0
1443 -1441 1442 0
-1444 1441 0
-1444 1442 0
1444 -1441 -1442 0
-1445 23 0
-1445 73 0
1445 -23 -73 0
-1446 119 169 0
-1446 -119 -169 0
1446 -119 169 0
1446 119 -169 0
-1447 1445 0
-1447 -1446 0
1447 -1445 1446 0
-1448 1445 0
-1448 1446 0
1448 -1445 -1446 0
-1449 37 0
-1449 59 0
1449 -37 -59 0
-1450 133 155 0
-1450 -133 -155 0
1450 -133 155 0
1450 133 -155 0
-1451 1449 0
-1451 -1450 0
1451 -1449 1450 0
-1452 1449 0
-1452 1450 0
1452 -1449 -1450 0
-1453 7 0
-1453 90 0
1453 -7 -90 0
-1454 103 186 0
-1454 -103 -186 0
1454 -103 186 0
1454 103 -186 0
-1455 1453 0
-1455 -1454 0
1455 -1453 1454 0
-1456 1453 0
-1456 1454 0
1456 -1453 -1454 0
-1457 23 0
-1457 74 0
1457 -23 -74 0
-1458 119 170 0
-1458 -119 -170 0
1458 -119 170 0
1458 119 -170 0
-1459 1457 0
-1459 -1458 0
1459 -1457 1458 0
-1460 1457 0
-1460 1458 0
1460 -1457 -1458 0
-1461 38 0
-1461 59 0
1461 -38 -59 0
-1462 134 155 0
-1462 -134 -155 0
1462 -134 155 0
1462 134 -155 0
-1463 1461 0
-1463 -1462 0
1463 -1461 1462 0
-1464 1461 0
-1464 1462 0
1464 -1461 -1462 0
-1465 7 0
-1465 91 0
1465 -7 -91 0
-1466 103 187 0
-1466 -103 -187 0
1466 -103 187 0
1466 103 -187 0
-1467 1465 0
-1467 -1466 0
1467 -1465 1466 0
-1468 1465 0
-1468 1466 0
1468 -1465 -1466 0
-1469 23 0
-1469 75 0
1469 -23 -75 0
-1470 119 171 0
-1470 -119 -171 0
1470 -119 171 0
1470 119 -171 0
-1471 1469 0
-1471 -1470 0
1471 -1469 1470 0
-1472 1469 0
-1472 1470 0
1472 -1469 -1470 0
-1473 39 0
-1473 59 0
1473 -39 -59 0
-1474 135 155 0
-1474 -135 -155 0
1474 -135 155 0
1474 135 -155 0
-1475 1473 0
-1475 -1474 0
1475 -1473 1474 0
-1476 1473 0
-1476 1474 0
1476 -1473 -1474 0
-1477 7 0
-1477 92 0
1477 -7 -92 0
-1478 103 188 0
-1478 -103 -188 0
1478 -103 188 0
1478 103 -188 0
-1479 1477 0
-1479 -1478 0
1479 -1477 1478 0
-1480 1477 0
-1480 1478 0
1480 -1477 -1478 0
-1481 23 0
-1481 76 0
1481 -23 -76 0
-1482 119 172 0
-1482 -119 -172 0
1482 -119 172 0
1482 119 -172 0
-1483 1481 0
-1483 -1482 0
1483 -1481 1482 0
-1484 1481 0
-1484 1482 0
1484 -1481 -1482 0
-1485 40 0
-1485 59 0
1485 -40 -59 0
-1486 136 155 0
-1486 -136 -155 0
1486 -136 155 0
1486 136 -155 0
-1487 1485 0
-1487 -1486 0
1487 -1485 1486 0
-1488 1485 0
-1488 1486 0
1488 -1485 -1486 0
-1489 7 0
-1489 93 0
1489 -7 -93 0
-1490 103 189 0
-1490 -103 -189 0
1490 -103 189 0
1490 103 -189 0
-1491 1489 0
-1491 -1490 0
1491 -1489 1490 0
-1492 1489 0
-1492 1490 0
1492 -1489 -1490 0
-1493 24 0
-1493 73 0
1493 -24 -73 0
-1494 120 169 0
-1494 -120 -169 0
1494 -120 169 0
1494 120 -169 0
-1495 1493 0
-1495 -1494 0
1495 -1493 1494 0
-1496 1493 0
-1496 1494 0
1496 -1493 -1494 0
-1497 37 0
-1497 60 0
1497 -37 -60 0
-1498 133 156 0
-1498 -133 -156 0
1498 -133 156 0
1498 133 -156 0
-1499 1497 0
-1499 -1498 0
1499 -1497 1498 0
-1500 1497 0
-1500 1498 0
1500 -1497 -1498 0
-1501 7 0
-1501 94 0
1501 -7 -94 0
-1502 103 190 0
-1502 -103 -190 0
1502 -103 190 0
1502 103 -190 0
-1503 1501 0
-1503 -1502 0
1503 -1501 1502 0
-1504 1501 0
-1504 1502 0
1504 -1501 -1502 0
-1505 24 0
-1505 74 0
1505 -24 -74 0
-1506 120 170 0
-1506 -120 -170 0
1506 -120 170 0
1506 120 -170 0
-1507 1505 0
-1507 -1506 0
1507 -1505 1506 0
-1508 1505 0
-1508 1506 0
1508 -1505 -1506 0
-1509 38 0
-1509 60 0
1509 -38 -60 0
-1510 134 156 0
-1510 -134 -156 0
1510 -134 156 0
1510 134 -156 0
-1511 1509 0
-1511 -1510 0
1511 -1509 1510 0
-1512 1509 0
-1512 1510 0
1512 -1509 -1510 0
-1513 7 0
-1513 95 0
1513 -7 -95 0
-1514 103 191 0
-1514 -103 -191 0
1514 -103 191 0
1514 103 -191 0
-1515 1513 0
-1515 -1514 0
1515 -1513 1514 0
-1516 1513 0
-1516 1514 0
1516 -1513 -1514 0
-1517 24 0
-1517 75 0
1517 -24 -75 0
-1518 120 171 0
-1518 -120 -171 0
1518 -120 171 0
1518 120 -171 0
-1519 1517 0
-1519 -1518 0
1519 -1517 1518 0
-1520 1517 0
-1520 1518 0
1520 -1517 -1518 0
-1521 39 0
-1521 60 0
1521 -39 -60 0
-1522 135 156 0
-1522 -135 -156 0
1522 -135 156 0
1522 135 -156 0
-1523 1521 0
-1523 -1522 0
1523 -1521 1522 0
-1524 1521 0
-1524 1522 0
1524 -1521 -1522 0
-1525 7 0
-1525 96 0
1525 -7 -96 0
-1526 103 192 0
-1526 -103 -192 0
1526 -103 192 0
1526 103 -192 0
-1527 1525 0
-1527 -1526 0
1527 -1525 1526 0
-1528 1525 0
-1528 1526 0
1528 -1525 -1526 0
-1529 24 0
-1529 76 0
1529 -24 -76 0
-1530 120 172 0
-1530 -120 -172 0
1530 -120 172 0
1530 120 -172 0
-1531 1529 0
-1531 -1530 0
1531 -1529 1530 0
-1532 1529 0
-1532 1530 0
1532 -1529 -1530 0
-1533 40 0
-1533 60 0
1533 -40 -60 0
-1534 136 156 0
-1534 -136 -156 0
1534 -136 156 0
1534 136 -156 0
-1535 1533 0
-1535 -1534 0
1535 -1533 1534 0
-1536 1533 0
-1536 1534 0
1536 -1533 -1534 0
-1537 8 0
-1537 81 0
1537 -8 -81 0
-1538 104 177 0
-1538 -104 -177 0
1538 -104 177 0
1538 104 -177 0
-1539 1537 0
-1539 -1538 0
1539 -1537 1538 0
-1540 1537 0
-1540 1538 0
1540 -1537 -1538 0
-1541 21 0
-1541 77 0
1541 -21 -77 0
-1542 117 173 0
-1542 -117 -173 0
1542 -117 173 0
1542 117 -173 0
-1543 1541 0
-1543 -1542 0
1543 -1541 1542 0
-1544 1541 0
-1544 1542 0
1544 -1541 -1542 0
-1545 37 0
-1545 61 0
1545 -37 -61 0
-1546 133 157 0
-1546 -133 -157 0
1546 -133 157 0
1546 133 -157 0
-1547 1545 0
-1547 -1546 0
1547 -1545 1546 0
-1548 1545 0
-1548 1546 0
1548 -1545 -1546 0
-1549 8 0
-1549 82 0
1549 -8 -82 0
-1550 104 178 0
-1550 -104 -178 0
1550 -104 178 0
1550 104 -178 0
-1551 1549 0
-1551 -1550 0
1551 -1549 1550 0
-1552 1549 0
-1552 1550 0
1552 -1549 -1550 0
-1553 21 0
-1553 78 0
1553 -21 -78 0
-1554 117 174 0
-1554 -117 -174 0
1554 -117 174 0
1554 117 -174 0
-1555 1553 0
-1555 -1554 0
1555 -1553 1554 0
-1556 1553 0
-1556 1554 0
1556 -1553 -1554 0
-1557 38 0
-1557 61 0
1557 -38 -61 0
-1558 134 157 0
-1558 -134 -157 0
1558 -134 157 0
1558 134 -157 0
-1559 1557 0
-1559 -1558 0
1559 -1557 1558 0
-1560 1557 0
-1560 1558 0
1560 -1557 -1558 0
-1561 8 0
-1561 83 0
1561 -8 -83 0
-1562 104 179 0
-1562 -104 -179 0
1562 -104 179 0
1562 104 -179 0
-1563 1561 0
-1563 -1562 0
1563 -1561 1562 0
-1564 1561 0
-1564 1562 0
1564 -1561 -1562 0
-1565 21 0
-1565 79 0
1565 -21 -79 0
-1566 117 175 0
-1566 -117 -175 0
1566 -117 175 0
1566 117 -175 0
-1567 1565 0
-1567 -1566 0
1567 -1565 1566 0
-1568 1565 0
-1568 1566 0
1568 -1565 -1566 0
-1569 39 0
-1569 61 0
1569 -39 -61 0
-1570 135 157 0
-1570 -135 -157 0
1570 -135 157 0
1570 135 -157 0
-1571 1569 0
-1571 -1570 0
1571 -1569 1570 0
-1572 1569 0
-1572 1570 0
1572 -1569 -1570 0
-1573 8 0
-1573 84 0
1573 -8 -84 0
-1574 104 180 0
-1574 -104 -180 0
1574 -104 180 0
1574 104 -180 0
-1575 1573 0
-1575 -1574 0
1575 -1573 1574 0
-1576 1573 0
-1576 1574 0
1576 -1573 -1574 0
-1577 21 0
-1577 80 0
1577 -21 -80 0
-1578 117 176 0
-1578 -117 -176 0
1578 -117 176 0
1578 117 -176 0
-1579 1577 0
-1579 -1578 0
1579 -1577 1578 0
-1580 1577 0
-1580 1578 0
1580 -1577 -1578 0
-1581 40 0
-1581 61 0
1581 -40 -61 0
-1582 136 157 0
-1582 -136 -157 0
1582 -136 157 0
1582 136 -157 0
-1583 1581 0
-1583 -1582 0
1583 -1581 1582 0
-1584 1581 0
-1584 1582 0
1584 -1581 -1582 0
-1585 8 0
-1585 85 0
1585 -8 -85 0
-1586 104 181 0
-1586 -104 -181 0
1586 -104 181 0
1586 104 -181 0
-1587 1585 0
-1587 -1586 0
1587 -1585 1586 0
-1588 1585 0
-1588 1586 0
1588 -1585 -1586 0
-1589 22 0
-1589 77 0
1589 -22 -77 0
-1590 118 173 0
-1590 -118 -173 0
1590 -118 173 0
1590 118 -173 0
-1591 1589 0
-1591 -1590 0
1591 -1589 1590 0
-1592 1589 0
-1592 1590 0
1592 -1589 -1590 0
-1593 37 0
-1593 62 0
1593 -37 -62 0
-1594 133 158 0
-1594 -133 -158 0
1594 -133 158 0
1594 133 -158 0
-1595 1593 0
-1595 -1594 0
1595 -1593 1594 0
-1596 1593 0
-1596 1594 0
1596 -1593 -1594 0
-1597 8 0
-1597 86 0
1597 -8 -86 0
-1598 104 182 0
-1598 -104 -182 0
1598 -104 182 0
1598 104 -182 0
-1599 1597 0
-1599 -1598 0
1599 -1597 1598 0
-1600 1597 0
-1600 1598 0
1600 -1597 -1598 0
-1601 22 0
-1601 78 0
1601 -22 -78 0
-1602 118 174 0
-1602 -118 -174 0
1602 -118 174 0
1602 118 -174 0
-1603 1601 0
-1603 -1602 0
1603 -1601 1602 0
-1604 1601 0
-1604 1602 0
1604 -1601 -1602 0
-1605 38 0
-1605 62 0
1605 -38 -62 0
-1606 134 158 0
-1606 -134 -158 0
1606 -134 158 0
1606 134 -158 0
-1607 1605 0
-1607 -1606 0
1607 -1605 1606 0
-1608 1605 0
-1608 1606 0
1608 -1605 -1606 0
-1609 8 0
-1609 87 0
1609 -8 -87 0
-1610 104 183 0
-1610 -104 -183 0
1610 -104 183 0
1610 104 -183 0
-1611 1609 0
-1611 -1610 0
1611 -1609 1610 0
-1612 1609 0
-1612 1610 0
1612 -1609 -1610 0
-1613 22 0
-1613 79 0
1613 -22 -79 0
-1614 118 175 0
-1614 -118 -175 0
1614 -118 175 0
1614 118 -175 0
-1615 1613 0
-1615 -1614 0
1615 -1613 1614 0
-1616 1613 0
-1616 1614 0
1616 -1613 -1614 0
-1617 39 0
-1617 62 0
1617 -39 -62 0
-1618 135 158 0
-1618 -135 -158 0
1618 -135 158 0
1618 135 -158 0
-1619 1617 0
-1619 -1618 0
1619 -1617 1618 0
-1620 1617 0
-1620 1618 0
1620 -1617 -1618 0
-1621 8 0
-1621 88 0
1621 -8 -88 0
-1622 104 184 0
-1622 -104 -184 0
1622 -104 184 0
1622 104 -184 0
-1623 1621 0
-1623 -1622 0
1623 -1621 1622 0
-1624 1621 0
-1624 1622 0
1624 -1621 -1622 0
-1625 22 0
-1625 80 0
1625 -22 -80 0
-1626 118 176 0
-1626 -118 -176 0
1626 -118 176 0
1626 118 -176 0
-1627 1625 0
-1627 -1626 0
1627 -1625 1626 0
-1628 1625 0
-1628 1626 0
1628 -1625 -1626 0
-1629 40 0
-1629 62 0
1629 -40 -62 0
-1630 136 158 0
-1630 -136 -158 0
1630 -136 158 0
1630 136 -158 0
-1631 1629 0
-1631 -1630 0
1631 -1629 1630 0
-1632 1629 0
-1632 1630 0
1632 -1629 -1630 0
-1633 8 0
-1633 89 0
1633 -8 -89 0
-1634 104 185 0
-1634 -104 -185 0
1634 -104 185 0
1634 104 -185 0
-1635 1633 0
-1635 -1634 0
1635 -1633 1634 0
-1636 1633 0
-1636 1634 0
1636 -1633 -1634 0
-1637 23 0
-1637 77 0
1637 -23 -77 0
-1638 119 173 0
-1638 -119 -173 0
1638 -119 173 0
1638 119 -173 0
-1639 1637 0
-1639 -1638 0
1639 -1637 1638 0
-1640 1637 0
-1640 1638 0
1640 -1637 -1638 0
-1641 37 0
-1641 63 0
1641 -37 -63 0
-1642 133 159 0
-1642 -133 -159 0
1642 -133 159 0
1642 133 -159 0
-1643 1641 0
-1643 -1642 0
1643 -1641 1642 0
-1644 1641 0
-1644 1642 0
1644 -1641 -1642 0
-1645 8 0
-1645 90 0
1645 -8 -90 0
-1646 104 186 0
-1646 -104 -186 0
1646 -104 186 0
1646 104 -186 0
-1647 1645 0
-1647 -1646 0
1647 -1645 1646 0
-1648 1645 0
-1648 1646 0
1648 -1645 -1646 0
-1649 23 0
-1649 78 0
1649 -23 -78 0
-1650 119 174 0
-1650 -119 -174 0
1650 -119 174 0
1650 119 -174 0
-1651 1649 0
-1651 -1650 0
1651 -1649 1650 0
-1652 1649 0
-1652 1650 0
1652 -1649 -1650 0
-1653 38 0
-1653 63 0
1653 -38 -63 0
-1654 134 159 0
-1654 -134 -159 0
1654 -134 159 0
1654 134 -159 0
-1655 1653 0
-1655 -1654 0
1655 -1653 1654 0
-1656 1653 0
-1656 1654 0
1656 -1653 -1654 0
-1657 8 0
-1657 91 0
1657 -8 -91 0
-1658 104 187 0
-1658 -104 -187 0
1658 -104 187 0
1658 104 -187 0
-1659 1657 0
-1659 -1658 0
1659 -1657 1658 0
-1660 1657 0
-1660 1658 0
1660 -1657 -1658 0
-1661 23 0
-1661 79 0
1661 -23 -79 0
-1662 119 175 0
-1662 -119 -175 0
1662 -119 175 0
1662 119 -175 0
-1663 1661 0
-1663 -1662 0
1663 -1661 1662 0
-1664 1661 0
-1664 1662 0
1664 -1661 -1662 0
-1665 39 0
-1665 63 0
1665 -39 -63 0
-1666 135 159 0
-1666 -135 -159 0
1666 -135 159 0
1666 135 -159 0
-1667 1665 0
-1667 -1666 0
1667 -1665 1666 0
-1668 1665 0
-1668 1666 0
1668 -1665 -1666 0
-1669 8 0
-1669 92 0
1669 -8 -92 0
-1670 104 188 0
-1670 -104 -188 0
1670 -104 188 0
1670 104 -188 0
-1671 1669 0
-1671 -1670 0
1671 -1669 1670 0
-1672 1669 0
-1672 1670 0
1672 -1669 -1670 0
-1673 23 0
-1673 80 0
1673 -23 -80 0
-1674 119 176 0
-1674 -119 -176 0
1674 -119 176 0
1674 119 -176 0
-1675 1673 0
-1675 -1674 0
1675 -1673 1674 0
-1676 1673 0
-1676 1674 0
1676 -1673 -1674 0
-1677 40 0
-1677 63 0
1677 -40 -63 0
-1678 136 159 0
-1678 -136 -159 0
1678 -136 159 0
1678 136 -159 0
-1679 1677 0
-1679 -1678 0
1679 -1677 1678 0
-1680 1677 0
-1680 1678 0
1680 -1677 -1678 0
-1681 8 0
-1681 93 0
1681 -8 -93 0
-1682 104 189 0
-1682 -104 -189 0
1682 -104 189 0
1682 104 -189 0
-1683 1681 0
-1683 -1682 0
1683 -1681 1682 0
-1684 1681 0
-1684 1682 0
1684 -1681 -1682 0
-1685 24 0
-1685 77 0
1685 -24 -77 0
-1686 120 173 0
-1686 -120 -173 0
1686 -120 173 0
1686 120 -173 0
-1687 1685 0
-1687 -1686 0
1687 -1685 1686 0
-1688 1685 0
-1688 1686 0
1688 -1685 -1686 0
-1689 37 0
-1689 64 0
1689 -37 -64 0
-1690 133 160 0
-1690 -133 -160 0
1690 -133 160 0
1690 133 -160 0
-1691 1689 0
-1691 -1690 0
1691 -1689 1690 0
-1692 1689 0
-1692 1690 0
1692 -1689 -1690 0
-1693 8 0
-1693 94 0
1693 -8 -94 0
-1694 104 190 0
-1694 -104 -190 0
1694 -104 190 0
1694 104 -190 0
-1695 1693 0
-1695 -1694 0
1695 -1693 1694 0
-1696 1693 0
-1696 1694 0
1696 -1693 -1694 0
-1697 24 0
-1697 78 0
1697 -24 -78 0
-1698 120 174 0
-1698 -120 -174 0
1698 -120 174 0
1698 120 -174 0
-1699 1697 0
-1699 -1698 0
1699 -1697 1698 0
-1700 1697 0
-1700 1698 0
1700 -1697 -1698 0
-1701 38 0
-1701 64 0
1701 -38 -64 0
-1702 134 160 0
-1702 -134 -160 0
1702 -134 160 0
1702 134 -160 0
-1703 1701 0
-1703 -1702 0
1703 -1701 1702 0
-1704 1701 0
-1704 1702 0
1704 -1701 -1702 0
-1705 8 0
-1705 95 0
1705 -8 -95 0
-1706 104 191 0
-1706 -104 -191 0
1706 -104 191 0
1706 104 -191 0
-1707 1705 0
-1707 -1706 0
1707 -1705 1706 0
-1708 1705 0
-1708 1706 0
1708 -1705 -1706 0
-1709 24 0
-1709 79 0
1709 -24 -79 0
-1710 120 175 0
-1710 -120 -175 0
1710 -120 175 0
1710 120 -175 0
-1711 1709 0
-1711 -1710 0
1711 -1709 1710 0
-1712 1709 0
-1712 1710 0
1712 -1709 -1710 0
-1713 39 0
-1713 64 0
1713 -39 -64 0
-1714 135 160 0
-1714 -135 -160 0
1714 -135 160 0
1714 135 -160 0
-1715 1713 0
-1715 -1714 0
1715 -1713 1714 0
-1716 1713 0
-1716 1714 0
1716 -1713 -1714 0
-1717 8 0
-1717 96 0
1717 -8 -96 0
-1718 104 192 0
-1718 -104 -192 0
1718 -104 192 0
1718 104 -192 0
-1719 1717 0
-1719 -1718 0
1719 -1717 1718 0
-1720 1717 0
-1720 1718 0
1720 -1717 -1718 0
-1721 24 0
-1721 80 0
1721 -24 -80 0
-1722 120 176 0
-1722 -120 -176 0
1722 -120 176 0
1722 120 -176 0
-1723 1721 0
-1723 -1722 0
1723 -1721 1722 0
-1724 1721 0
-1724 1722 0
1724 -1721 -1722 0
-1725 40 0
-1725 64 0
1725 -40 -64 0
-1726 136 160 0
-1726 -136 -160 0
1726 -136 160 0
1726 136 -160 0
-1727 1725 0
-1727 -1726 0
1727 -1725 1726 0
-1728 1725 0
-1728 1726 0
1728 -1725 -1726 0
-1729 9 0
-1729 81 0
1729 -9 -81 0
-1730 105 177 0
-1730 -105 -177 0
1730 -105 177 0
1730 105 -177 0
-1731 1729 0
-1731 -1730 0
1731 -1729 1730 0
-1732 1729 0
-1732 1730 0
1732 -1729 -1730 0
-1733 25 0
-1733 65 0
1733 -25 -65 0
-1734 121 161 0
-1734 -121 -161 0
1734 -121 161 0
1734 121 -161 0
-1735 1733 0
-1735 -1734 0
1735 -1733 1734 0
-1736 1733 0
-1736 1734 0
1736 -1733 -1734 0
-1737 41 0
-1737 49 0
1737 -41 -49 0
-1738 137 145 0
-1738 -137 -145 0
1738 -137 145 0
1738 137 -145 0
-1739 1737 0
-1739 -1738 0
1739 -1737 1738 0
-1740 1737 0
-1740 1738 0
1740 -1737 -1738 0
-1741 9 0
-1741 82 0
1741 -9 -82 0
-1742 105 178 0
-1742 -105 -178 0
1742 -105 178 0
1742 105 -178 0
-1743 1741 0
-1743 -1742 0
1743 -1741 1742 0
-1744 1741 0
-1744 1742 0
1744 -1741 -1742 0
-1745 25 0
-1745 66 0
1745 -25 -66 0
-1746 121 162 0
-1746 -121 -162 0
1746 -121 162 0
1746 121 -162 0
-1747 1745 0
-1747 -1746 0
1747 -1745 1746 0
-1748 1745 0
-1748 1746 0
1748 -1745 -1746 0
-1749 42 0
-1749 49 0
1749 -42 -49 0
-1750 138 145 0
-1750 -138 -145 0
1750 -138 145 0
1750 138 -145 0
-1751 1749 0
-1751 -1750 0
1751 -1749 1750 0
-1752 1749 0
-1752 1750 0
1752 -1749 -1750 0
-1753 9 0
-1753 83 0
1753 -9 -83 0
-1754 105 179 0
-1754 -105 -179 0
1754 -105 179 0
1754 105 -179 0
-1755 1753 0
-1755 -1754 0
1755 -1753 1754 0
-1756 1753 0
-1756 1754 0
1756 -1753 -1754 0
-1757 25 0
-1757 67 0
1757 -25 -67 0
-1758 121 163 0
-1758 -121 -163 0
1758 -121 163 0
1758 121 -163 0
-1759 1757 0
-1759 -1758 0
1759 -1757 1758 0
-1760 1757 0
-1760 1758 0
1760 -1757 -1758 0
-1761 43 0
-1761 49 0
1761 -43 -49 0
-1762 139 145 0
-1762 -139 -145 0
1762 -139 145 0
1762 139 -145 0
-1763 1761 0
-1763 -1762 0
1763 -1761 1762 0
-1764 1761 0
-1764 1762 0
1764 -1761 -1762 0
-1765 9 0
-1765 84 0
1765 -9 -84 0
-1766 105 180 0
-1766 -105 -180 0
1766 -105 180 0
1766 105 -180 0
-1767 1765 0
-1767 -1766 0
1767 -1765 1766 0
-1768 1765 0
-1768 1766 0
1768 -1765 -1766 0
-1769 25 0
-1769 68 0
1769 -25 -68 0
-1770 121 164 0
-1770 -121 -164 0
1770 -121 164 0
1770 121 -164 0
-1771 1769 0
-1771 -1770 0
1771 -1769 1770 0
-1772 1769 0
-1772 1770 0
1772 -1769 -1770 0
-1773 44 0
-1773 49 0
1773 -44 -49 0
-1774 140 145 0
-1774 -140 -145 0
1774 -140 145 0
1774 140 -145 0
-1775 1773 0
-1775 -1774 0
1775 -1773 1774 0
-1776 1773 0
-1776 1774 0
1776 -1773 -1774 0
-1777 9 0
-1777 85 0
1777 -9 -85 0
-1778 105 181 0
-1778 -105 -181 0
1778 -105 181 0
1778 105 -181 0
-1779 1777 0
-1779 -1778 0
1779 -1777 1778 0
-1780 1777 0
-1780 1778 0
1780 -1777 -1778 0
-1781 26 0
-1781 65 0
1781 -26 -65 0
-1782 122 161 0
-1782 -122 -161 0
1782 -122 161 0
1782 122 -161 0
-1783 1781 0
-1783 -1782 0
1783 -1781 1782 0
-1784 1781 0
-1784 1782 0
1784 -1781 -1782 0
-1785 41 0
-1785 50 0
1785 -41 -50 0
-1786 137 146 0
-1786 -137 -146 0
1786 -137 146 0
1786 137 -146 0
-1787 1785 0
-1787 -1786 0
1787 -1785 1786 0
-1788 1785 0
-1788 1786 0
1788 -1785 -1786 0
-1789 9 0
-1789 86 0
1789 -9 -86 0
-1790 105 182 0
-1790 -105 -182 0
1790 -105 182 0
1790 105 -182 0
-1791 1789 0
-1791 -1790 0
1791 -1789 1790 0
-1792 1789 0
-1792 1790 0
1792 -1789 -1790 0
-1793 26 0
-1793 66 0
1793 -26 -66 0
-1794 122 162 0
-1794 -122 -162 0
1794 -122 162 0
1794 122 -162 0
-1795 1793 0
-1795 -1794 0
1795 -1793 1794 0
-1796 1793 0
-1796 1794 0
1796 -1793 -1794 0
-1797 42 0
-1797 50 0
1797 -42 -50 0
-1798 138 146 0
-1798 -138 -146 0
1798 -138 146 0
1798 138 -146 0
-1799 1797 0
-1799 -1798 0
1799 -1797 1798 0
-1800 1797 0
-1800 1798 0
1800 -1797 -1798 0
-1801 9 0
-1801 87 0
1801 -9 -87 0
-1802 105 183 0
-1802 -105 -183 0
1802 -105 183 0
1802 105 -183 0
-1803 1801 0
-1803 -1802 0
1803 -1801 1802 0
-1804 1801 0
-1804 1802 0
1804 -1801 -1802 0
-1805 26 0
-1805 67 0
1805 -26 -67 0
-1806 122 163 0
-1806 -122 -163 0
1806 -122 163 0
1806 122 -163 0
-1807 1805 0
-1807 -1806 0
1807 -1805 1806 0
-1808 1805 0
-1808 1806 0
1808 -1805 -1806 0
-1809 43 0
-1809 50 0
1809 -43 -50 0
-1810 139 146 0
-1810 -139 -146 0
1810 -139 146 0
1810 139 -146 0
-1811 1809 0
-1811 -1810 0
1811 -1809 1810 0
-1812 1809 0
-1812 1810 0
1812 -1809 -1810 0
-1813 9 0
-1813 88 0
1813 -9 -88 0
-1814 105 184 0
-1814 -105 -184 0
1814 -105 184 0
1814 105 -184 0
-1815 1813 0
-1815 -1814 0
1815 -1813 1814 0
-1816 1813 0
-1816 1814 0
1816 -1813 -1814 0
-1817 26 0
-1817 68 0
1817 -26 -68 0
-1818 122 164 0
-1818 -122 -164 0
1818 -122 164 0
1818 122 -164 0
-1819 1817 0
-1819 -1818 0
1819 -1817 1818 0
-1820 1817 0
-1820 1818 0
1820 -1817 -1818 0
-1821 44 0
-1821 50 0
1821 -44 -50 0
-1822 140 146 0
-1822 -140 -146 0
1822 -140 146 0
1822 140 -146 0
-1823 1821 0
-1823 -1822 0
1823 -1821 1822 0
-1824 1821 0
-1824 1822 0
1824 -1821 -1822 0
-1825 9 0
-1825 89 0
1825 -9 -89 0
-1826 105 185 0
-1826 -105 -185 0
1826 -105 185 0
1826 105 -185 0
-1827 1825 0
-1827 -1826 0
1827 -1825 1826 0
-1828 1825 0
-1828 1826 0
1828 -1825 -1826 0
-1829 27 0
-1829 65 0
1829 -27 -65 0
-1830 123 161 0
-1830 -123 -161 0
1830 -123 161 0
1830 123 -161 0
-1831 1829 0
-1831 -1830 0
1831 -1829 1830 0
-1832 1829 0
-1832 1830 0
1832 -1829 -1830 0
-1833 41 0
-1833 51 0
1833 -41 -51 0
-1834 137 147 0
-1834 -137 -147 0
1834 -137 147 0
1834 137 -147 0
-1835 1833 0
-1835 -1834 0
1835 -1833 1834 0
-1836 1833 0
-1836 1834 0
1836 -1833 -1834 0
-1837 9 0
-1837 90 0
1837 -9 -90 0
-1838 105 186 0
-1838 -105 -186 0
1838 -105 186 0
1838 105 -186 0
-1839 1837 0
-1839 -1838 0
1839 -1837 1838 0
-1840 1837 0
-1840 1838 0
1840 -1837 -1838 0
-1841 27 0
-1841 66 0
1841 -27 -66 0
-1842 123 162 0
-1842 -123 -162 0
1842 -123 162 0
1842 123 -162 0
-1843 1841 0
-1843 -1842 0
1843 -1841 1842 0
-1844 1841 0
-1844 1842 0
1844 -1841 -1842 0
-1845 42 0
-1845 51 0
1845 -42 -51 0
-1846 138 147 0
-1846 -138 -147 0
1846 -138 147 0
1846 138 -147 0
-1847 1845 0
-1847 -1846 0
1847 -1845 1846 0
-1848 1845 0
-1848 1846 0
1848 -1845 -1846 0
-1849 9 0
-1849 91 0
1849 -9 -91 0
-1850 105 187 0
-1850 -105 -187 0
1850 -105 187 0
1850 105 -187 0
-1851 1849 0
-1851 -1850 0
1851 -1849 1850 0
-1852 1849 0
-1852 1850 0
1852 -1849 -1850 0
-1853 27 0
-1853 67 0
1853 -27 -67 0
-1854 123 163 0
-1854 -123 -163 0
1854 -123 163 0
1854 123 -163 0
-1855 1853 0
-1855 -1854 0
1855 -1853 1854 0
-1856 1853 0
-1856 1854 0
1856 -1853 -1854 0
-1857 43 0
-1857 51 0
1857 -43 -51 0
-1858 139 147 0
-1858 -139 -147 0
1858 -139 147 0
1858 139 -147 0
-1859 1857 0
-1859 -1858 0
1859 -1857 1858 0
-1860 1857 0
-1860 1858 0
1860 -1857 -1858 0
-1861 9 0
-1861 92 0
1861 -9 -92 0
-1862 105 188 0
-1862 -105 -188 0
1862 -105 188 0
1862 105 -188 0
-1863 1861 0
-1863 -1862 0
1863 -1861 1862 0
-1864 1861 0
-1864 1862 0
1864 -1861 -1862 0
-1865 27 0
-1865 68 0
1865 -27 -68 0
-1866 123 164 0
-1866 -123 -164 0
1866 -123 164 0
1866 123 -164 0
-1867 1865 0
-1867 -1866 0
1867 -1865 1866 0
-1868 1865 0
-1868 1866 0
1868 -1865 -1866 0
-1869 44 0
-1869 51 0
1869 -44 -51 0
-1870 140 147 0
-1870 -140 -147 0
1870 -140 147 0
1870 140 -147 0
-1871 1869 0
-1871 -1870 0
1871 -1869 1870 0
-1872 1869 0
-1872 1870 0
1872 -1869 -1870 0
-1873 9 0
-1873 93 0
1873 -9 -93 0
-1874 105 189 0
-1874 -105 -189 0
1874 -105 189 0
1874 105 -189 0
-1875 1873 0
-1875 -1874 0
1875 -1873 1874 0
-1876 1873 0
-1876 1874 0
1876 -1873 -1874 0
-1877 28 0
-1877 65 0
1877 -28 -65 0
-1878 124 161 0
-1878 -124 -161 0
1878 -124 161 0
1878 124 -161 0
-1879 1877 0
-1879 -1878 0
1879 -1877 1878 0
-1880 1877 0
-1880 1878 0
1880 -1877 -1878 0
-1881 41 0
-1881 52 0
1881 -41 -52 0
-1882 137 148 0
-1882 -137 -148 0
1882 -137 148 0
1882 137 -148 0
-1883 1881 0
-1883 -1882 0
1883 -1881 1882 0
-1884 1881 0
-1884 1882 0
1884 -1881 -1882 0
-1885 9 0
-1885 94 0
1885 -9 -94 0
-1886 105 190 0
-1886 -105 -190 0
1886 -105 190 0
1886 105 -190 0
-1887 1885 0
-1887 -1886 0
1887 -1885 1886 0
-1888 1885 0
-1888 1886 0
1888 -1885 -1886 0
-1889 28 0
-1889 66 0
1889 -28 -66 0
-1890 124 162 0
-1890 -124 -162 0
1890 -124 162 0
1890 124 -162 0
-1891 1889 0
-1891 -1890 0
1891 -1889 1890 0
-1892 1889 0
-1892 1890 0
1892 -1889 -1890 0
-1893 42 0
-1893 52 0
1893 -42 -52 0
-1894 138 148 0
-1894 -138 -148 0
1894 -138 148 0
1894 138 -148 0
-1895 1893 0
-1895 -1894 0
1895 -1893 1894 0
-1896 1893 0
-1896 1894 0
1896 -1893 -1894 0
-1897 9 0
-1897 95 0
1897 -9 -95 0
-1898 105 191 0
-1898 -105 -191 0
1898 -105 191 0
1898 105 -191 0
-1899 1897 0
-1899 -1898 0
1899 -1897 1898 0
-1900 1897 0
-1900 1898 0
1900 -1897 -1898 0
-1901 28 0
-1901 67 0
1901 -28 -67 0
-1902 124 163 0
-1902 -124 -163 0
1902 -124 163 0
1902 124 -163 0
-1903 1901 0
-1903 -1902 0
1903 -1901 1902 0
-1904 1901 0
-1904 1902 0
1904 -1901 -1902 0
-1905 43 0
-1905 52 0
1905 -43 -52 0
-1906 139 148 0
-1906 -139 -148 0
1906 -139 148 0
1906 139 -148 0
-1907 1905 0
-1907 -1906 0
1907 -1905 1906 0
-1908 1905 0
-1908 1906 0
1908 -1905 -1906 0
-1909 9 0
-1909 96 0
1909 -9 -96 0
-1910 105 192 0
-1910 -105 -192 0
1910 -105 192 0
1910 105 -192 0
-1911 1909 0
-1911 -1910 0
1911 -1909 1910 0
-1912 1909 0
-1912 1910 0
1912 -1909 -1910 0
-1913 28 0
-1913 68 0
1913 -28 -68 0
-1914 124 164 0
-1914 -124 -164 0
1914 -124 164 0
1914 124 -164 0
-1915 1913 0
-1915 -1914 0
1915 -1913 1914 0
-1916 1913 0
-1916 1914 0
1916 -1913 -1914 0
-1917 44 0
-1917 52 0
1917 -44 -52 0
-1918 140 148 0
-1918 -140 -148 0
1918 -140 148 0
1918 140 -148 0
-1919 1917 0
-1919 -1918 0
1919 -1917 1918 0
-1920 1917 0
-1920 1918 0
1920 -1917 -1918 0
-1921 10 0
-1921 81 0
1921 -10 -81 0
-1922 106 177 0
-1922 -106 -177 0
1922 -106 177 0
1922 106 -177 0
-1923 1921 0
-1923 -1922 0
1923 -1921 1922 0
-1924 1921 0
-1924 1922 0
1924 -1921 -1922 0
-1925 25 0
-1925 69 0
1925 -25 -69 0
-1926 121 165 0
-1926 -121 -165 0
1926 -121 165 0
1926 121 -165 0
-1927 1925 0
-1927 -1926 0
1927 -1925 1926 0
-1928 1925 0
-1928 1926 0
1928 -1925 -1926 0
-1929 41 0
-1929 53 0
1929 -41 -53 0
-1930 137 149 0
-1930 -137 -149 0
1930 -137 149 0
1930 137 -149 0
-1931 1929 0
-1931 -1930 0
1931 -1929 1930 0
-1932 1929 0
-1932 1930 0
1932 -1929 -1930 0
-1933 10 0
-1933 82 0
1933 -10 -82 0
-1934 106 178 0
-1934 -106 -178 0
1934 -106 178 0
1934 106 -178 0
-1935 1933 0
-1935 -1934 0
1935 -1933 1934 0
-1936 1933 0
-1936 1934 0
1936 -1933 -1934 0
-1937 25 0
-1937 70 0
1937 -25 -70 0
-1938 121 166 0
-1938 -121 -166 0
1938 -121 166 0
1938 121 -166 0
-1939 1937 0
-1939 -1938 0
1939 -1937 1938 0
-1940 1937 0
-1940 1938 0
1940 -1937 -1938 0
-1941 42 0
-1941 53 0
1941 -42 -53 0
-1942 138 149 0
-1942 -138 -149 0
1942 -138 149 0
1942 138 -149 0
-1943 1941 0
-1943 -1942 0
1943 -1941 1942 0
-1944 1941 0
-1944 1942 0
1944 -1941 -1942 0
-1945 10 0
-1945 83 0
1945 -10 -83 0
-1946 106 179 0
-1946 -106 -179 0
1946 -106 179 0
1946 106 -179 0
-1947 1945 0
-1947 -1946 0
1947 -1945 1946 0
-1948 1945 0
-1948 1946 0
1948 -1945 -1946 0
-1949 25 0
-1949 71 0
1949 -25 -71 0
-1950 121 167 0
-1950 -121 -167 0
1950 -121 167 0
1950 121 -167 0
-1951 1949 0
-1951 -1950 0
1951 -1949 1950 0
-1952 1949 0
-1952 1950 0
1952 -1949 -1950 0
-1953 43 0
-1953 53 0
1953 -43 -53 0
-1954 139 149 0
-1954 -139 -149 0
1954 -139 149 0
1954 139 -149 0
-1955 1953 0
-1955 -1954 0
1955 -1953 1954 0
-1956 1953 0
-1956 1954 0
1956 -1953 -1954 0
-1957 10 0
-1957 84 0
1957 -10 -84 0
-1958 106 180 0
-1958 -106 -180 0
1958 -106 180 0
1958 106 -180 0
-1959 1957 0
-1959 -1958 0
1959 -1957 1958 0
-1960 1957 0
-1960 1958 0
1960 -1957 -1958 0
-1961 25 0
-1961 72 0
1961 -25 -72 0
-1962 121 168 0
-1962 -121 -168 0
1962 -121 168 0
1962 121 -168 0
-1963 1961 0
-1963 -1962 0
1963 -1961 1962 0
-1964 1961 0
-1964 1962 0
1964 -1961 -1962 0
-1965 44 0
-1965 53 0
1965 -44 -53 0
-1966 140 149 0
-1966 -140 -149 0
1966 -140 149 0
1966 140 -149 0
-1967 1965 0
-1967 -1966 0
1967 -1965 1966 0
-1968 1965 0
-1968 1966 0
1968 -1965 -1966 0
-1969 10 0
-1969 85 0
1969 -10 -85 0
-1970 106 181 0
-1970 -106 -181 0
1970 -106 181 0
1970 106 -181 0
-1971 1969 0
-1971 -1970 0
1971 -1969 1970 0
-1972 1969 0
-1972 1970 0
1972 -1969 -1970 0
-1973 26 0
-1973 69 0
1973 -26 -69 0
-1974 122 165 0
-1974 -122 -165 0
1974 -122 165 0
1974 122 -165 0
-1975 1973 0
-1975 -1974 0
1975 -1973 1974 0
-1976 1973 0
-1976 1974 0
1976 -1973 -1974 0
-1977 41 0
-1977 54 0
1977 -41 -54 0
-1978 137 150 0
-1978 -137 -150 0
1978 -137 150 0
1978 137 -150 0
-1979 1977 0
-1979 -1978 0
1979 -1977 1978 0
-1980 1977 0
-1980 1978 0
1980 -1977 -1978 0
-1981 10 0
-1981 86 0
1981 -10 -86 0
-1982 106 182 0
-1982 -106 -182 0
1982 -106 182 0
1982 106 -182 0
-1983 1981 0
-1983 -1982 0
1983 -1981 1982 0
-1984 1981 0
-1984 1982 0
1984 -1981 -1982 0
-1985 26 0
-1985 70 0
1985 -26 -70 0
-1986 122 166 0
-1986 -122 -166 0
1986 -122 166 0
1986 122 -166 0
-1987 1985 0
-1987 -1986 0
1987 -1985 1986 0
-1988 1985 0
-1988 1986 0
1988 -1985 -1986 0
-1989 42 0
-1989 54 0
1989 -42 -54 0
-1990 138 150 0
-1990 -138 -150 0
1990 -138 150 0
1990 138 -150 0
-1991 1989 0
-1991 -1990 0
1991 -1989 1990 0
-1992 1989 0
-1992 1990 0
1992 -1989 -1990 0
-1993 10 0
-1993 87 0
1993 -10 -87 0
-1994 106 183 0
-1994 -106 -183 0
1994 -106 183 0
1994 106 -183 0
-1995 1993 0
-1995 -1994 0
1995 -1993 1994 0
-1996 1993 0
-1996 1994 0
1996 -1993 -1994 0
-1997 26 0
-1997 71 0
1997 -26 -71 0
-1998 122 167 0
-1998 -122 -167 0
1998 -122 167 0
1998 122 -167 0
-1999 1997 0
-1999 -1998 0
1999 -1997 1998 0
-2000 1997 0
-2000 1998 0
2000 -1997 -1998 0
-2001 43 0
-2001 54 0
2001 -43 -54 0
-2002 139 150 0
-2002 -139 -150 0
2002 -139 150 0
2002 139 -150 0
-2003 2001 0
-2003 -2002 0
2003 -2001 2002 0
-2004 2001 0
-2004 2002 0
2004 -2001 -2002 0
-2005 10 0
-2005 88 0
2005 -10 -88 0
-2006 106 184 0
-2006 -106 -184 0
2006 -106 184 0
2006 106 -184 0
-2007 2005 0
-2007 -2006 0
2007 -2005 2006 0
-2008 2005 0
-2008 2006 0
2008 -2005 -2006 0
-2009 26 0
-2009 72 0
2009 -26 -72 0
-2010 122 168 0
-2010 -122 -168 0
2010 -122 168 0
2010 122 -168 0
-2011 2009 0
-2011 -2010 0
2011 -2009 2010 0
-2012 2009 0
-2012 2010 0
2012 -2009 -2010 0
-2013 44 0
-2013 54 0
2013 -44 -54 0
-2014 140 150 0
-2014 -140 -150 0
2014 -140 150 0
2014 140 -150 0
-2015 2013 0
-2015 -2014 0
2015 -2013 2014 0
-2016 2013 0
-2016 2014 0
2016 -2013 -2014 0
-2017 10 0
-2017 89 0
2017 -10 -89 0
-2018 106 185 0
-2018 -106 -185 0
2018 -106 185 0
2018 106 -185 0
-2019 2017 0
-2019 -2018 0
2019 -2017 2018 0
-2020 2017 0
-2020 2018 0
2020 -2017 -2018 0
-2021 27 0
-2021 69 0
2021 -27 -69 0
-2022 123 165 0
-2022 -123 -165 0
2022 -123 165 0
2022 123 -165 0
-2023 2021 0
-2023 -2022 0
2023 -2021 2022 0
-2024 2021 0
-2024 2022 0
2024 -2021 -2022 0
-2025 41 0
-2025 55 0
2025 -41 -55 0
-2026 137 151 0
-2026 -137 -151 0
2026 -137 151 0
2026 137 -151 0
-2027 2025 0
-2027 -2026 0
2027 -2025 2026 0
-2028 2025 0
-2028 2026 0
2028 -2025 -2026 0
-2029 10 0
-2029 90 0
2029 -10 -90 0
-2030 106 186 0
-2030 -106 -186 0
2030 -106 186 0
2030 106 -186 0
-2031 2029 0
-2031 -2030 0
2031 -2029 2030 0
-2032 2029 0
-2032 2030 0
2032 -2029 -2030 0
-2033 27 0
-2033 70 0
2033 -27 -70 0
-2034 123 166 0
-2034 -123 -166 0
2034 -123 166 0
2034 123 -166 0
-2035 2033 0
-2035 -2034 0
2035 -2033 2034 0
-2036 2033 0
-2036 2034 0
2036 -2033 -2034 0
-2037 42 0
-2037 55 0
2037 -42 -55 0
-2038 138 151 0
-2038 -138 -151 0
2038 -138 151 0
2038 138 -151 0
-2039 2037 0
-2039 -2038 0
2039 -2037 2038 0
-2040 2037 0
-2040 2038 0
2040 -2037 -2038 0
-2041 10 0
-2041 91 0
2041 -10 -91 0
-2042 106 187 0
-2042 -106 -187 0
2042 -106 187 0
2042 106 -187 0
-2043 2041 0
-2043 -2042 0
2043 -2041 2042 0
-2044 2041 0
-2044 2042 0
2044 -2041 -2042 0
-2045 27 0
-2045 71 0
2045 -27 -71 0
-2046 123 167 0
-2046 -123 -167 0
2046 -123 167 0
2046 123 -167 0
-2047 2045 0
-2047 -2046 0
2047 -2045 2046 0
-2048 2045 0
-2048 2046 0
2048 -2045 -2046 0
-2049 43 0
-2049 55 0
2049 -43 -55 0
-2050 139 151 0
-2050 -139 -151 0
2050 -139 151 0
2050 139 -151 0
-2051 2049 0
-2051 -2050 0
2051 -2049 2050 0
-2052 2049 0
-2052 2050 0
2052 -2049 -2050 0
-2053 10 0
-2053 92 0
2053 -10 -92 0
-2054 106 188 0
-2054 -106 -188 0
2054 -106 188 0
2054 106 -188 0
-2055 2053 0
-2055 -2054 0
2055 -2053 2054 0
-2056 2053 0
-2056 2054 0
2056 -2053 -2054 0
-2057 27 0
-2057 72 0
2057 -27 -72 0
-2058 123 168 0
-2058 -123 -168 0
2058 -123 168 0
2058 123 -168 0
-2059 2057 0
-2059 -2058 0
2059 -2057 2058 0
-2060 2057 0
-2060 2058 0
2060 -2057 -2058 0
-2061 44 0
-2061 55 0
2061 -44 -55 0
-2062 140 151 0
-2062 -140 -151 0
2062 -140 151 0
2062 140 -151 0
-2063 2061 0
-2063 -2062 0
2063 -2061 2062 0
-2064 2061 0
-2064 2062 0
2064 -2061 -2062 0
-2065 10 0
-2065 93 0
2065 -10 -93 0
-2066 106 189 0
-2066 -106 -189 0
2066 -106 189 0
2066 106 -189 0
-2067 2065 0
-2067 -2066 0
2067 -2065 2066 0
-2068 2065 0
-2068 2066 0
2068 -2065 -2066 0
-2069 28 0
-2069 69 0
2069 -28 -69 0
-2070 124 165 0
-2070 -124 -165 0
2070 -124 165 0
2070 124 -165 0
-2071 2069 0
-2071 -2070 0
2071 -2069 2070 0
-2072 2069 0
-2072 2070 0
2072 -2069 -2070 0
-2073 41 0
-2073 56 0
2073 -41 -56 0
-2074 137 152 0
-2074 -137 -152 0
2074 -137 152 0
2074 137 -152 0
-2075 2073 0
-2075 -2074 0
2075 -2073 2074 0
-2076 2073 0
-2076 2074 0
2076 -2073 -2074 0
-2077 10 0
-2077 94 0
2077 -10 -94 0
-2078 106 190 0
-2078 -106 -190 0
2078 -106 190 0
2078 106 -190 0
-2079 2077 0
-2079 -2078 0
2079 -2077 2078 0
-2080 2077 0
-2080 2078 0
2080 -2077 -2078 0
-2081 28 0
-2081 70 0
2081 -28 -70 0
-2082 124 166 0
-2082 -124 -166 0
2082 -124 166 0
2082 124 -166 0
-2083 2081 0
-2083 -2082 0
2083 -2081 2082 0
-2084 2081 0
-2084 2082 0
2084 -2081 -2082 0
-2085 42 0
-2085 56 0
2085 -42 -56 0
-2086 138 152 0
-2086 -138 -152 0
2086 -138 152 0
2086 138 -152 0
-2087 2085 0
-2087 -2086 0
2087 -2085 2086 0
-2088 2085 0
-2088 2086 0
2088 -2085 -2086 0
-2089 10 0
-2089 95 0
2089 -10 -95 0
-2090 106 191 0
-2090 -106 -191 0
2090 -106 191 0
2090 106 -191 0
-2091 2089 0
-2091 -2090 0
2091 -2089 2090 0
-2092 2089 0
-2092 2090 0
2092 -2089 -2090 0
-2093 28 0
-2093 71 0
2093 -28 -71 0
-2094 124 167 0
-2094 -124 -167 0
2094 -124 167 0
2094 124 -167 0
-2095 2093 0
-2095 -2094 0
2095 -2093 2094 0
-2096 2093 0
-2096 2094 0
2096 -2093 -2094 0
-2097 43 0
-2097 56 0
2097 -43 -56 0
-2098 139 152 0
-2098 -139 -152 0
2098 -139 152 0
2098 139 -152 0
-2099 2097 0
-2099 -2098 0
2099 -2097 2098 0
-2100 2097 0
-2100 2098 0
2100 -2097 -2098 0
-2101 10 0
-2101 96 0
2101 -10 -96 0
-2102 106 192 0
-2102 -106 -192 0
2102 -106 192 0
2102 106 -192 0
-2103 2101 0
-2103 -2102 0
2103 -2101 2102 0
-2104 2101 0
-2104 2102 0
2104 -2101 -2102 0
-2105 28 0
-2105 72 0
2105 -28 -72 0
-2106 124 168 0
-2106 -124 -168 0
2106 -124 168 0
2106 124 -168 0
-2107 2105 0
-2107 -2106 0
2107 -2105 2106 0
-2108 2105 0
-2108 2106 0
2108 -2105 -2106 0
-2109 44 0
-2109 56 0
2109 -44 -56 0
-2110 140 152 0
-2110 -140 -152 0
2110 -140 152 0
2110 140 -152 0
-2111 2109 0
-2111 -2110 0
2111 -2109 2110 0
-2112 2109 0
-2112 2110 0
2112 -2109 -2110 0
-2113 11 0
-2113 81 0
2113 -11 -81 0
-2114 107 177 0
-2114 -107 -177 0
2114 -107 177 0
2114 107 -177 0
-2115 2113 0
-2115 -2114 0
2115 -2113 2114 0
-2116 2113 0
-2116 2114 0
2116 -2113 -2114 0
-2117 25 0
-2117 73 0
2117 -25 -73 0
-2118 121 169 0
-2118 -121 -169 0
2118 -121 169 0
2118 121 -169 0
-2119 2117 0
-2119 -2118 0
2119 -2117 2118 0
-2120 2117 0
-2120 2118 0
2120 -2117 -2118 0
-2121 41 0
-2121 57 0
2121 -41 -57 0
-2122 137 153 0
-2122 -137 -153 0
2122 -137 153 0
2122 137 -153 0
-2123 2121 0
-2123 -2122 0
2123 -2121 2122 0
-2124 2121 0
-2124 2122 0
2124 -2121 -2122 0
-2125 11 0
-2125 82 0
2125 -11 -82 0
-2126 107 178 0
-2126 -107 -178 0
2126 -107 178 0
2126 107 -178 0
-2127 2125 0
-2127 -2126 0
2127 -2125 2126 0
-2128 2125 0
-2128 2126 0
2128 -2125 -2126 0
-2129 25 0
-2129 74 0
2129 -25 -74 0
-2130 121 170 0
-2130 -121 -170 0
2130 -121 170 0
2130 121 -170 0
-2131 2129 0
-2131 -2130 0
2131 -2129 2130 0
-2132 2129 0
-2132 2130 0
2132 -2129 -2130 0
-2133 42 0
-2133 57 0
2133 -42 -57 0
-2134 138 153 0
-2134 -138 -153 0
2134 -138 153 0
2134 138 -153 0
-2135 2133 0
-2135 -2134 0
2135 -2133 2134 0
-2136 2133 0
-2136 2134 0
2136 -2133 -2134 0
-2137 11 0
-2137 83 0
2137 -11 -83 0
-2138 107 179 0
-2138 -107 -179 0
2138 -107 179 0
2138 107 -179 0
-2139 2137 0
-2139 -2138 0
2139 -2137 2138 0
-2140 2137 0
-2140 2138 0
2140 -2137 -2138 0
-2141 25 0
-2141 75 0
2141 -25 -75 0
-2142 121 171 0
-2142 -121 -171 0
2142 -121 171 0
2142 121 -171 0
-2143 2141 0
-2143 -2142 0
2143 -2141 2142 0
-2144 2141 0
-2144 2142 0
2144 -2141 -2142 0
-2145 43 0
-2145 57 0
2145 -43 -57 0
-2146 139 153 0
-2146 -139 -153 0
2146 -139 153 0
2146 139 -153 0
-2147 2145 0
-2147 -2146 0
2147 -2145 2146 0
-2148 2145 0
-2148 2146 0
2148 -2145 -2146 0
-2149 11 0
-2149 84 0
2149 -11 -84 0
-2150 107 180 0
-2150 -107 -180 0
2150 -107 180 0
2150 107 -180 0
-2151 2149 0
-2151 -2150 0
2151 -2149 2150 0
-2152 2149 0
-2152 2150 0
2152 -2149 -2150 0
-2153 25 0
-2153 76 0
2153 -25 -76 0
-2154 121 172 0
-2154 -121 -172 0
2154 -121 172 0
2154 121 -172 0
-2155 2153 0
-2155 -2154 0
2155 -2153 2154 0
-2156 2153 0
-2156 2154 0
2156 -2153 -2154 0
-2157 44 0
-2157 57 0
2157 -44 -57 0
-2158 140 153 0
-2158 -140 -153 0
2158 -140 153 0
2158 140 -153 0
-2159 2157 0
-2159 -2158 0
2159 -2157 2158 0
-2160 2157 0
-2160 2158 0
2160 -2157 -2158 0
-2161 11 0
-2161 85 0
2161 -11 -85 0
-2162 107 181 0
-2162 -107 -181 0
2162 -107 181 0
2162 107 -181 0
-2163 2161 0
-2163 -2162 0
2163 -2161 2162 0
-2164 2161 0
-2164 2162 0
2164 -2161 -2162 0
-2165 26 0
-2165 73 0
2165 -26 -73 0
-2166 122 169 0
-2166 -122 -169 0
2166 -122 169 0
2166 122 -169 0
-2167 2165 0
-2167 -2166 0
2167 -2165 2166 0
-2168 2165 0
-2168 2166 0
2168 -2165 -2166 0
-2169 41 0
-2169 58 0
2169 -41 -58 0
-2170 137 154 0
-2170 -137 -154 0
2170 -137 154 0
2170 137 -154 0
-2171 2169 0
-2171 -2170 0
2171 -2169 2170 0
-2172 2169 0
-2172 2170 0
2172 -2169 -2170 0
-2173 11 0
-2173 86 0
2173 -11 -86 0
-2174 107 182 0
-2174 -107 -182 0
2174 -107 182 0
2174 107 -182 0
-2175 2173 0
-2175 -2174 0
2175 -2173 2174 0
-2176 2173 0
-2176 2174 0
2176 -2173 -2174 0
-2177 26 0
-2177 74 0
2177 -26 -74 0
-2178 122 170 0
-2178 -122 -170 0
2178 -122 170 0
2178 122 -170 0
-2179 2177 0
-2179 -2178 0
2179 -2177 2178 0
-2180 2177 0
-2180 2178 0
2180 -2177 -2178 0
-2181 42 0
-2181 58 0
2181 -42 -58 0
-2182 138 154 0
-2182 -138 -154 0
2182 -138 154 0
2182 138 -154 0
-2183 2181 0
-2183 -2182 0
2183 -2181 2182 0
-2184 2181 0
-2184 2182 0
2184 -2181 -2182 0
-2185 11 0
-2185 87 0
2185 -11 -87 0
-2186 107 183 0
-2186 -107 -183 0
2186 -107 183 0
2186 107 -183 0
-2187 2185 0
-2187 -2186 0
2187 -2185 2186 0
-2188 2185 0
-2188 2186 0
2188 -2185 -2186 0
-2189 26 0
-2189 75 0
2189 -26 -75 0
-2190 122 171 0
-2190 -122 -171 0
2190 -122 171 0
2190 122 -171 0
-2191 2189 0
-2191 -2190 0
2191 -2189 2190 0
-2192 2189 0
-2192 2190 0
2192 -2189 -2190 0
-2193 43 0
-2193 58 0
2193 -43 -58 0
-2194 139 154 0
-2194 -139 -154 0
2194 -139 154 0
2194 139 -154 0
-2195 2193 0
-2195 -2194 0
2195 -2193 2194 0
-2196 2193 0
-2196 2194 0
2196 -2193 -2194 0
-2197 11 0
-2197 88 0
2197 -11 -88 0
-2198 107 184 0
-2198 -107 -184 0
2198 -107 184 0
2198 107 -184 0
-2199 2197 0
-2199 -2198 0
2199 -2197 2198 0
-2200 2197 0
-2200 2198 0
2200 -2197 -2198 0
-2201 26 0
-2201 76 0
2201 -26 -76 0
-2202 122 172 0
-2202 -122 -172 0
2202 -122 172 0
2202 122 -172 0
-2203 2201 0
-2203 -2202 0
2203 -2201 2202 0
-2204 2201 0
-2204 2202 0
2204 -2201 -2202 0
-2205 44 0
-2205 58 0
2205 -44 -58 0
-2206 140 154 0
-2206 -140 -154 0
2206 -140 154 0
2206 140 -154 0
-2207 2205 0
-2207 -2206 0
2207 -2205 2206 0
-2208 2205 0
-2208 2206 0
2208 -2205 -2206 0
-2209 11 0
-2209 89 0
2209 -11 -89 0
-2210 107 185 0
-2210 -107 -185 0
2210 -107 185 0
2210 107 -185 0
-2211 2209 0
-2211 -2210 0
2211 -2209 2210 0
-2212 2209 0
-2212 2210 0
2212 -2209 -2210 0
-2213 27 0
-2213 73 0
2213 -27 -73 0
-2214 123 169 0
-2214 -123 -169 0
2214 -123 169 0
2214 123 -169 0
-2215 2213 0
-2215 -2214 0
2215 -2213 2214 0
-2216 2213 0
-2216 2214 0
2216 -2213 -2214 0
-2217 41 0
-2217 59 0
2217 -41 -59 0
-2218 137 155 0
-2218 -137 -155 0
2218 -137 155 0
2218 137 -155 0
-2219 2217 0
-2219 -2218 0
2219 -2217 2218 0
-2220 2217 0
-2220 2218 0
2220 -2217 -2218 0
-2221 11 0
-2221 90 0
2221 -11 -90 0
-2222 107 186 0
-2222 -107 -186 0
2222 -107 186 0
2222 107 -186 0
-2223 2221 0
-2223 -2222 0
2223 -2221 2222 0
-2224 2221 0
-2224 2222 0
2224 -2221 -2222 0
-2225 27 0
-2225 74 0
2225 -27 -74 0
-2226 123 170 0
-2226 -123 -170 0
2226 -123 170 0
2226 123 -170 0
-2227 2225 0
-2227 -2226 0
2227 -2225 2226 0
-2228 2225 0
-2228 2226 0
2228 -2225 -2226 0
-2229 42 0
-2229 59 0
2229 -42 -59 0
-2230 138 155 0
-2230 -138 -155 0
2230 -138 155 0
2230 138 -155 0
-2231 2229 0
-2231 -2230 0
2231 -2229 2230 0
-2232 2229 0
-2232 2230 0
2232 -2229 -2230 0
-2233 11 0
-2233 91 0
2233 -11 -91 0
-2234 107 187 0
-2234 -107 -187 0
2234 -107 187 0
2234 107 -187 0
-2235 2233 0
-2235 -2234 0
2235 -2233 2234 0
-2236 2233 0
-2236 2234 0
2236 -2233 -2234 0
-2237 27 0
-2237 75 0
2237 -27 -75 0
-2238 123 171 0
-2238 -123 -171 0
2238 -123 171 0
2238 123 -171 0
-2239 2237 0
-2239 -2238 0
2239 -2237 2238 0
-2240 2237 0
-2240 2238 0
2240 -2237 -2238 0
-2241 43 0
-2241 59 0
2241 -43 -59 0
-2242 139 155 0
-2242 -139 -155 0
2242 -139 155 0
2242 139 -155 0
-2243 2241 0
-2243 -2242 0
2243 -2241 2242 0
-2244 2241 0
-2244 2242 0
2244 -2241 -2242 0
-2245 11 0
-2245 92 0
2245 -11 -92 0
-2246 107 188 0
-2246 -107 -188 0
2246 -107 188 0
2246 107 -188 0
-2247 2245 0
-2247 -2246 0
2247 -2245 2246 0
-2248 2245 0
-2248 2246 0
2248 -2245 -2246 0
-2249 27 0
-2249 76 0
2249 -27 -76 0
-2250 123 172 0
-2250 -123 -172 0
2250 -123 172 0
2250 123 -172 0
-2251 2249 0
-2251 -2250 0
2251 -2249 2250 0
-2252 2249 0
-2252 2250 0
2252 -2249 -2250 0
-2253 44 0
-2253 59 0
2253 -44 -59 0
-2254 140 155 0
-2254 -140 -155 0
2254 -140 155 0
2254 140 -155 0
-2255 2253 0
-2255 -2254 0
2255 -2253 2254 0
-2256 2253 0
-2256 2254 0
2256 -2253 -2254 0
-2257 11 0
-2257 93 0
2257 -11 -93 0
-2258 107 189 0
-2258 -107 -189 0
2258 -107 189 0
2258 107 -189 0
-2259 2257 0
-2259 -2258 0
2259 -2257 2258 0
-2260 2257 0
-2260 2258 0
2260 -2257 -2258 0
-2261 28 0
-2261 73 0
2261 -28 -73 0
-2262 124 169 0
-2262 -124 -169 0
2262 -124 169 0
2262 124 -169 0
-2263 2261 0
-2263 -2262 0
2263 -2261 2262 0
-2264 2261 0
-2264 2262 0
2264 -2261 -2262 0
-2265 41 0
-2265 60 0
2265 -41 -60 0
-2266 137 156 0
-2266 -137 -156 0
2266 -137 156 0
2266 137 -156 0
-2267 2265 0
-2267 -2266 0
2267 -2265 2266 0
-2268 2265 0
-2268 2266 0
2268 -2265 -2266 0
-2269 11 0
-2269 94 0
2269 -11 -94 0
-2270 107 190 0
-2270 -107 -190 0
2270 -107 190 0
2270 107 -190 0
-2271 2269 0
-2271 -2270 0
2271 -2269 2270 0
-2272 2269 0
-2272 2270 0
2272 -2269 -2270 0
-2273 28 0
-2273 74 0
2273 -28 -74 0
-2274 124 170 0
-2274 -124 -170 0
2274 -124 170 0
2274 124 -170 0
-2275 2273 0
-2275 -2274 0
2275 -2273 2274 0
-2276 2273 0
-2276 2274 0
2276 -2273 -2274 0
-2277 42 0
-2277 60 0
2277 -42 -60 0
-2278 138 156 0
-2278 -138 -156 0
2278 -138 156 0
2278 138 -156 0
-2279 2277 0
-2279 -2278 0
2279 -2277 2278 0
-2280 2277 0
-2280 2278 0
2280 -2277 -2278 0
-2281 11 0
-2281 95 0
2281 -11 -95 0
-2282 107 191 0
-2282 -107 -191 0
2282 -107 191 0
2282 107 -191 0
-2283 2281 0
-2283 -2282 0
2283 -2281 2282 0
-2284 2281 0
-2284 2282 0
2284 -2281 -2282 0
-2285 28 0
-2285 75 0
2285 -28 -75 0
-2286 124 171 0
-2286 -124 -171 0
2286 -124 171 0
2286 124 -171 0
-2287 2285 0
-2287 -2286 0
2287 -2285 2286 0
-2288 2285 0
-2288 2286 0
2288 -2285 -2286 0
-2289 43 0
-2289 60 0
2289 -43 -60 0
-2290 139 156 0
-2290 -139 -156 0
2290 -139 156 0
2290 139 -156 0
-2291 2289 0
-2291 -2290 0
2291 -2289 2290 0
-2292 2289 0
-2292 2290 0
2292 -2289 -2290 0
-2293 11 0
-2293 96 0
2293 -11 -96 0
-2294 107 192 0
-2294 -107 -192 0
2294 -107 192 0
2294 107 -192 0
-2295 2293 0
-2295 -2294 0
2295 -2293 2294 0
-2296 2293 0
-2296 2294 0
2296 -2293 -2294 0
-2297 28 0
-2297 76 0
2297 -28 -76 0
-2298 124 172 0
-2298 -124 -172 0
2298 -124 172 0
2298 124 -172 0
-2299 2297 0
-2299 -2298 0
2299 -2297 2298 0
-2300 2297 0
-2300 2298 0
2300 -2297 -2298 0
-2301 44 0
-2301 60 0
2301 -44 -60 0
-2302 140 156 0
-2302 -140 -156 0
2302 -140 156 0
2302 140 -156 0
-2303 2301 0
-2303 -2302 0
2303 -2301 2302 0
-2304 2301 0
-2304 2302 0
2304 -2301 -2302 0
-2305 12 0
-2305 81 0
2305 -12 -81 0
-2306 108 177 0
-2306 -108 -177 0
2306 -108 177 0
2306 108 -177 0
-2307 2305 0
-2307 -2306 0
2307 -2305 2306 0
-2308 2305 0
-2308 2306 0
2308 -2305 -2306 0
-2309 25 0
-2309 77 0
2309 -25 -77 0
-2310 121 173 0
-2310 -121 -173 0
2310 -121 173 0
2310 121 -173 0
-2311 2309 0
-2311 -2310 0
2311 -2309 2310 0
-2312 2309 0
-2312 2310 0
2312 -2309 -2310 0
-2313 41 0
-2313 61 0
2313 -41 -61 0
-2314 137 157 0
-2314 -137 -157 0
2314 -137 157 0
2314 137 -157 0
-2315 2313 0
-2315 -2314 0
2315 -2313 2314 0
-2316 2313 0
-2316 2314 0
2316 -2313 -2314 0
-2317 12 0
-2317 82 0
2317 -12 -82 0
-2318 108 178 0
-2318 -108 -178 0
2318 -108 178 0
2318 108 -178 0
-2319 2317 0
-2319 -2318 0
2319 -2317 2318 0
-2320 2317 0
-2320 2318 0
2320 -2317 -2318 0
-2321 25 0
-2321 78 0
2321 -25 -78 0
-2322 121 174 0
-2322 -121 -174 0
2322 -121 174 0
2322 121 -174 0
-2323 2321 0
-2323 -2322 0
2323 -2321 2322 0
-2324 2321 0
-2324 2322 0
2324 -2321 -2322 0
-2325 42 0
-2325 61 0
2325 -42 -61 0
-2326 138 157 0
-2326 -138 -157 0
2326 -138 157 0
2326 138 -157 0
-2327 2325 0
-2327 -2326 0
2327 -2325 2326 0
-2328 2325 0
-2328 2326 0
2328 -2325 -2326 0
-2329 12 0
-2329 83 0
2329 -12 -83 0
-2330 108 179 0
-2330 -108 -179 0
2330 -108 179 0
2330 108 -179 0
-2331 2329 0
-2331 -2330 0
2331 -2329 2330 0
-2332 2329 0
-2332 2330 0
2332 -2329 -2330 0
-2333 25 0
-2333 79 0
2333 -25 -79 0
-2334 121 175 0
-2334 -121 -175 0
2334 -121 175 0
2334 121 -175 0
-2335 2333 0
-2335 -2334 0
2335 -2333 2334 0
-2336 2333 0
-2336 2334 0
2336 -2333 -2334 0
-2337 43 0
-2337 61 0
2337 -43 -61 0
-2338 139 157 0
-2338 -139 -157 0
2338 -139 157 0
2338 139 -157 0
-2339 2337 0
-2339 -2338 0
2339 -2337 2338 0
-2340 2337 0
-2340 2338 0
2340 -2337 -2338 0
-2341 12 0
-2341 84 0
2341 -12 -84 0
-2342 108 180 0
-2342 -108 -180 0
2342 -108 180 0
2342 108 -180 0
-2343 2341 0
-2343 -2342 0
2343 -2341 2342 0
-2344 2341 0
-2344 2342 0
2344 -2341 -2342 0
-2345 25 0
-2345 80 0
2345 -25 -80 0
-2346 121 176 0
-2346 -121 -176 0
2346 -121 176 0
2346 121 -176 0
-2347 2345 0
-2347 -2346 0
2347 -2345 2346 0
-2348 2345 0
-2348 2346 0
2348 -2345 -2346 0
-2349 44 0
-2349 61 0
2349 -44 -61 0
-2350 140 157 0
-2350 -140 -157 0
2350 -140 157 0
2350 140 -157 0
-2351 2349 0
-2351 -2350 0
2351 -2349 2350 0
-2352 2349 0
-2352 2350 0
2352 -2349 -2350 0
-2353 12 0
-2353 85 0
2353 -12 -85 0
-2354 108 181 0
-2354 -108 -181 0
2354 -108 181 0
2354 108 -181 0
-2355 2353 0
-2355 -2354 0
2355 -2353 2354 0
-2356 2353 0
-2356 2354 0
2356 -2353 -2354 0
-2357 26 0
-2357 77 0
2357 -26 -77 0
-2358 122 173 0
-2358 -122 -173 0
2358 -122 173 0
2358 122 -173 0
-2359 2357 0
-2359 -2358 0
2359 -2357 2358 0
-2360 2357 0
-2360 2358 0
2360 -2357 -2358 0
-2361 41 0
-2361 62 0
2361 -41 -62 0
-2362 137 158 0
-2362 -137 -158 0
2362 -137 158 0
2362 137 -158 0
-2363 2361 0
-2363 -2362 0
2363 -2361 2362 0
-2364 2361 0
-2364 2362 0
2364 -2361 -2362 0
-2365 12 0
-2365 86 0
2365 -12 -86 0
-2366 108 182 0
-2366 -108 -182 0
2366 -108 182 0
2366 108 -182 0
-2367 2365 0
-2367 -2366 0
2367 -2365 2366 0
-2368 2365 0
-2368 2366 0
2368 -2365 -2366 0
-2369 26 0
-2369 78 0
2369 -26 -78 0
-2370 122 174 0
-2370 -122 -174 0
2370 -122 174 0
2370 122 -174 0
-2371 2369 0
-2371 -2370 0
2371 -2369 2370 0
-2372 2369 0
-2372 2370 0
2372 -2369 -2370 0
-2373 42 0
-2373 62 0
2373 -42 -62 0
-2374 138 158 0
-2374 -138 -158 0
2374 -138 158 0
2374 138 -158 0
-2375 2373 0
-2375 -2374 0
2375 -2373 2374 0
-2376 2373 0
-2376 2374 0
2376 -2373 -2374 0
-2377 12 0
-2377 87 0
2377 -12 -87 0
-2378 108 183 0
-2378 -108 -183 0
2378 -108 183 0
2378 108 -183 0
-2379 2377 0
-2379 -2378 0
2379 -2377 2378 0
-2380 2377 0
-2380 2378 0
2380 -2377 -2378 0
-2381 26 0
-2381 79 0
2381 -26 -79 0
-2382 122 175 0
-2382 -122 -175 0
2382 -122 175 0
2382 122 -175 0
-2383 2381 0
-2383 -2382 0
2383 -2381 2382 0
-2384 2381 0
-2384 2382 0
2384 -2381 -2382 0
-2385 43 0
-2385 62 0
2385 -43 -62 0
-2386 139 158 0
-2386 -139 -158 0
2386 -139 158 0
2386 139 -158 0
-2387 2385 0
-2387 -2386 0
2387 -2385 2386 0
-2388 2385 0
-2388 2386 0
2388 -2385 -2386 0
-2389 12 0
-2389 88 0
2389 -12 -88 0
-2390 108 184 0
-2390 -108 -184 0
2390 -108 184 0
2390 108 -184 0
-2391 2389 0
-2391 -2390 0
2391 -2389 2390 0
-2392 2389 0
-2392 2390 0
2392 -2389 -2390 0
-2393 26 0
-2393 80 0
2393 -26 -80 0
-2394 122 176 0
-2394 -122 -176 0
2394 -122 176 0
2394 122 -176 0
-2395 2393 0
-2395 -2394 0
2395 -2393 2394 0
-2396 2393 0
-2396 2394 0
2396 -2393 -2394 0
-2397 44 0
-2397 62 0
2397 -44 -62 0
-2398 140 158 0
-2398 -140 -158 0
2398 -140 158 0
2398 140 -158 0
-2399 2397 0
-2399 -2398 0
2399 -2397 2398 0
-2400 2397 0
-2400 2398 0
2400 -2397 -2398 0
-2401 12 0
-2401 89 0
2401 -12 -89 0
-2402 108 185 0
-2402 -108 -185 0
2402 -108 185 0
2402 108 -185 0
-2403 2401 0
-2403 -2402 0
2403 -2401 2402 0
-2404 2401 0
-2404 2402 0
2404 -2401 -2402 0
-2405 27 0
-2405 77 0
2405 -27 -77 0
-2406 123 173 0
-2406 -123 -173 0
2406 -123 173 0
2406 123 -173 0
-2407 2405 0
-2407 -2406 0
2407 -2405 2406 0
-2408 2405 0
-2408 2406 0
2408 -2405 -2406 0
-2409 41 0
-2409 63 0
2409 -41 -63 0
-2410 137 159 0
-2410 -137 -159 0
2410 -137 159 0
2410 137 -159 0
-2411 2409 0
-2411 -2410 0
2411 -2409 2410 0
-2412 2409 0
-2412 2410 0
2412 -2409 -2410 0
-2413 12 0
-2413 90 0
2413 -12 -90 0
-2414 108 186 0
-2414 -108 -186 0
2414 -108 186 0
2414 108 -186 0
-2415 2413 0
-2415 -2414 0
2415 -2413 2414 0
-2416 2413 0
-2416 2414 0
2416 -2413 -2414 0
-2417 27 0
-2417 78 0
2417 -27 -78 0
-2418 123 174 0
-2418 -123 -174 0
2418 -123 174 0
2418 123 -174 0
-2419 2417 0
-2419 -2418 0
2419 -2417 2418 0
-2420 2417 0
-2420 2418 0
2420 -2417 -2418 0
-2421 42 0
-2421 63 0
2421 -42 -63 0
-2422 138 159 0
-2422 -138 -159 0
2422 -138 159 0
2422 138 -159 0
-2423 2421 0
-2423 -2422 0
2423 -2421 2422 0
-2424 2421 0
-2424 2422 0
2424 -2421 -2422 0
-2425 12 0
-2425 91 0
2425 -12 -91 0
-2426 108 187 0
-2426 -108 -187 0
2426 -108 187 0
2426 108 -187 0
-2427 2425 0
-2427 -2426 0
2427 -2425 2426 0
-2428 2425 0
-2428 2426 0
2428 -2425 -2426 0
-2429 27 0
-2429 79 0
2429 -27 -79 0
-2430 123 175 0
-2430 -123 -175 0
2430 -123 175 0
2430 123 -175 0
-2431 2429 0
-2431 -2430 0
2431 -2429 2430 0
-2432 2429 0
-2432 2430 0
2432 -2429 -2430 0
-2433 43 0
-2433 63 0
2433 -43 -63 0
-2434 139 159 0
-2434 -139 -159 0
2434 -139 159 0
2434 139 -159 0
-2435 2433 0
-2435 -2434 0
2435 -2433 2434 0
-2436 2433 0
-2436 2434 0
2436 -2433 -2434 0
-2437 12 0
-2437 92 0
2437 -12 -92 0
-2438 108 188 0
-2438 -108 -188 0
2438 -108 188 0
2438 108 -188 0
-2439 2437 0
-2439 -2438 0
2439 -2437 2438 0
-2440 2437 0
-2440 2438 0
2440 -2437 -2438 0
-2441 27 0
-2441 80 0
2441 -27 -80 0
-2442 123 176 0
-2442 -123 -176 0
2442 -123 176 0
2442 123 -176 0
-2443 2441 0
-2443 -2442 0
2443 -2441 2442 0
-2444 2441 0
-2444 2442 0
2444 -2441 -2442 0
-2445 44 0
-2445 63 0
2445 -44 -63 0
-2446 140 159 0
-2446 -140 -159 0
2446 -140 159 0
2446 140 -159 0
-2447 2445 0
-2447 -2446 0
2447 -2445 2446 0
-2448 2445 0
-2448 2446 0
2448 -2445 -2446 0
-2449 12 0
-2449 93 0
2449 -12 -93 0
-2450 108 189 0
-2450 -108 -189 0
2450 -108 189 0
2450 108 -189 0
-2451 2449 0
-2451 -2450 0
2451 -2449 2450 0
-2452 2449 0
-2452 2450 0
2452 -2449 -2450 0
-2453 28 0
-2453 77 0
2453 -28 -77 0
-2454 124 173 0
-2454 -124 -173 0
2454 -124 173 0
2454 124 -173 0
-2455 2453 0
-2455 -2454 0
2455 -2453 2454 0
-2456 2453 0
-2456 2454 0
2456 -2453 -2454 0
-2457 41 0
-2457 64 0
2457 -41 -64 0
-2458 137 160 0
-2458 -137 -160 0
2458 -137 160 0
2458 137 -160 0
-2459 2457 0
-2459 -2458 0
2459 -2457 2458 0
-2460 2457 0
-2460 2458 0
2460 -2457 -2458 0
-2461 12 0
-2461 94 0
2461 -12 -94 0
-2462 108 190 0
-2462 -108 -190 0
2462 -108 190 0
2462 108 -190 0
-2463 2461 0
-2463 -2462 0
2463 -2461 2462 0
-2464 2461 0
-2464 2462 0
2464 -2461 -2462 0
-2465 28 0
-2465 78 0
2465 -28 -78 0
-2466 124 174 0
-2466 -124 -174 0
2466 -124 174 0
2466 124 -174 0
-2467 2465 0
-2467 -2466 0
2467 -2465 2466 0
-2468 2465 0
-2468 2466 0
2468 -2465 -2466 0
-2469 42 0
-2469 64 0
2469 -42 -64 0
-2470 138 160 0
-2470 -138 -160 0
2470 -138 160 0
2470 138 -160 0
-2471 2469 0
-2471 -2470 0
2471 -2469 2470 0
-2472 2469 0
-2472 2470 0
2472 -2469 -2470 0
-2473 12 0
-2473 95 0
2473 -12 -95 0
-2474 108 191 0
-2474 -108 -191 0
2474 -108 191 0
2474 108 -191 0
-2475 2473 0
-2475 -2474 0
2475 -2473 2474 0
-2476 2473 0
-2476 2474 0
2476 -2473 -2474 0
-2477 28 0
-2477 79 0
2477 -28 -79 0
-2478 124 175 0
-2478 -124 -175 0
2478 -124 175 0
2478 124 -175 0
-2479 2477 0
-2479 -2478 0
2479 -2477 2478 0
-2480 2477 0
-2480 2478 0
2480 -2477 -2478 0
-2481 43 0
-2481 64 0
2481 -43 -64 0
-2482 139 160 0
-2482 -139 -160 0
2482 -139 160 0
2482 139 -160 0
-2483 2481 0
-2483 -2482 0
2483 -2481 2482 0
-2484 2481 0
-2484 2482 0
2484 -2481 -2482 0
-2485 12 0
-2485 96 0
2485 -12 -96 0
-2486 108 192 0
-2486 -108 -192 0
2486 -108 192 0
2486 108 -192 0
-2487 2485 0
-2487 -2486 0
2487 -2485 2486 0
-2488 2485 0
-2488 2486 0
2488 -2485 -2486 0
-2489 28 0
-2489 80 0
2489 -28 -80 0
-2490 124 176 0
-2490 -124 -176 0
2490 -124 176 0
2490 124 -176 0
-2491 2489 0
-2491 -2490 0
2491 -2489 2490 0
-2492 2489 0
-2492 2490 0
2492 -2489 -2490 0
-2493 44 0
-2493 64 0
2493 -44 -64 0
-2494 140 160 0
-2494 -140 -160 0
2494 -140 160 0
2494 140 -160 0
-2495 2493 0
-2495 -2494 0
2495 -2493 2494 0
-2496 2493 0
-2496 2494 0
2496 -2493 -2494 0
-2497 13 0
-2497 81 0
2497 -13 -81 0
-2498 109 177 0
-2498 -109 -177 0
2498 -109 177 0
2498 109 -177 0
-2499 2497 0
-2499 -2498 0
2499 -2497 2498 0
-2500 2497 0
-2500 2498 0
2500 -2497 -2498 0
-2501 29 0
-2501 65 0
2501 -29 -65 0
-2502 125 161 0
-2502 -125 -161 0
2502 -125 161 0
2502 125 -161 0
-2503 2501 0
-2503 -2502 0
2503 -2501 2502 0
-2504 2501 0
-2504 2502 0
2504 -2501 -2502 0
-2505 45 0
-2505 49 0
2505 -45 -49 0
-2506 141 145 0
-2506 -141 -145 0
2506 -141 145 0
2506 141 -145 0
-2507 2505 0
-2507 -2506 0
2507 -2505 2506 0
-2508 2505 0
-2508 2506 0
2508 -2505 -2506 0
-2509 13 0
-2509 82 0
2509 -13 -82 0
-2510 109 178 0
-2510 -109 -178 0
2510 -109 178 0
2510 109 -178 0
-2511 2509 0
-2511 -2510 0
2511 -2509 2510 0
-2512 2509 0
-2512 2510 0
2512 -2509 -2510 0
-2513 29 0
-2513 66 0
2513 -29 -66 0
-2514 125 162 0
-2514 -125 -162 0
2514 -125 162 0
2514 125 -162 0
-2515 2513 0
-2515 -2514 0
2515 -2513 2514 0
-2516 2513 0
-2516 2514 0
2516 -2513 -2514 0
-2517 46 0
-2517 49 0
2517 -46 -49 0
-2518 142 145 0
-2518 -142 -145 0
2518 -142 145 0
2518 142 -145 0
-2519 2517 0
-2519 -2518 0
2519 -2517 2518 0
-2520 2517 0
-2520 2518 0
2520 -2517 -2518 0
-2521 13 0
-2521 83 0
2521 -13 -83 0
-2522 109 179 0
-2522 -109 -179 0
2522 -109 179 0
2522 109 -179 0
-2523 2521 0
-2523 -2522 0
2523 -2521 2522 0
-2524 2521 0
-2524 2522 0
2524 -2521 -2522 0
-2525 29 0
-2525 67 0
2525 -29 -67 0
-2526 125 163 0
-2526 -125 -163 0
2526 -125 163 0
2526 125 -163 0
-2527 2525 0
-2527 -2526 0
2527 -2525 2526 0
-2528 2525 0
-2528 2526 0
2528 -2525 -2526 0
-2529 47 0
-2529 49 0
2529 -47 -49 0
-2530 143 145 0
-2530 -143 -145 0
2530 -143 145 0
2530 143 -145 0
-2531 2529 0
-2531 -2530 0
2531 -2529 2530 0
-2532 2529 0
-2532 2530 0
2532 -2529 -2530 0
-2533 13 0
-2533 84 0
2533 -13 -84 0
-2534 109 180 0
-2534 -109 -180 0
2534 -109 180 0
2534 109 -180 0
-2535 2533 0
-2535 -2534 0
2535 -2533 2534 0
-2536 2533 0
-2536 2534 0
2536 -2533 -2534 0
-2537 29 0
-2537 68 0
2537 -29 -68 0
-2538 125 164 0
-2538 -125 -164 0
2538 -125 164 0
2538 125 -164 0
-2539 2537 0
-2539 -2538 0
2539 -2537 2538 0
-2540 2537 0
-2540 2538 0
2540 -2537 -2538 0
-2541 48 0
-2541 49 0
2541 -48 -49 0
-2542 144 145 0
-2542 -144 -145 0
2542 -144 145 0
2542 144 -145 0
-2543 2541 0
-2543 -2542 0
2543 -2541 2542 0
-2544 2541 0
-2544 2542 0
2544 -2541 -2542 0
-2545 13 0
-2545 85 0
2545 -13 -85 0
-2546 109 181 0
-2546 -109 -181 0
2546 -109 181 0
2546 109 -181 0
-2547 2545 0
-2547 -2546 0
2547 -2545 2546 0
-2548 2545 0
-2548 2546 0
2548 -2545 -2546 0
-2549 30 0
-2549 65 0
2549 -30 -65 0
-2550 126 161 0
-2550 -126 -161 0
2550 -126 161 0
2550 126 -161 0
-2551 2549 0
-2551 -2550 0
2551 -2549 2550 0
-2552 2549 0
-2552 2550 0
2552 -2549 -2550 0
-2553 45 0
-2553 50 0
2553 -45 -50 0
-2554 141 146 0
-2554 -141 -146 0
2554 -141 146 0
2554 141 -146 0
-2555 2553 0
-2555 -2554 0
2555 -2553 2554 0
-2556 2553 0
-2556 2554 0
2556 -2553 -2554 0
-2557 13 0
-2557 86 0
2557 -13 -86 0
-2558 109 182 0
-2558 -109 -182 0
2558 -109 182 0
2558 109 -182 0
-2559 2557 0
-2559 -2558 0
2559 -2557 2558 0
-2560 2557 0
-2560 2558 0
2560 -2557 -2558 0
-2561 30 0
-2561 66 0
2561 -30 -66 0
-2562 126 162 0
-2562 -126 -162 0
2562 -126 162 0
2562 126 -162 0
-2563 2561 0
-2563 -2562 0
2563 -2561 2562 0
-2564 2561 0
-2564 2562 0
2564 -2561 -2562 0
-2565 46 0
-2565 50 0
2565 -46 -50 0
-2566 142 146 0
-2566 -142 -146 0
2566 -142 146 0
2566 142 -146 0
-2567 2565 0
-2567 -2566 0
2567 -2565 2566 0
-2568 2565 0
-2568 2566 0
2568 -2565 -2566 0
-2569 13 0
-2569 87 0
2569 -13 -87 0
-2570 109 183 0
-2570 -109 -183 0
2570 -109 183 0
2570 109 -183 0
-2571 2569 0
-2571 -2570 0
2571 -2569 2570 0
-2572 2569 0
-2572 2570 0
2572 -2569 -2570 0
-2573 30 0
-2573 67 0
2573 -30 -67 0
-2574 126 163 0
-2574 -126 -163 0
2574 -126 163 0
2574 126 -163 0
-2575 2573 0
-2575 -2574 0
2575 -2573 2574 0
-2576 2573 0
-2576 2574 0
2576 -2573 -2574 0
-2577 47 0
-2577 50 0
2577 -47 -50 0
-2578 143 146 0
-2578 -143 -146 0
2578 -143 146 0
2578 143 -146 0
-2579 2577 0
-2579 -2578 0
2579 -2577 2578 0
-2580 2577 0
-2580 2578 0
2580 -2577 -2578 0
-2581 13 0
-2581 88 0
2581 -13 -88 0
-2582 109 184 0
-2582 -109 -184 0
2582 -109 184 0
2582 109 -184 0
-2583 2581 0
-2583 -2582 0
2583 -2581 2582 0
-2584 2581 0
-2584 2582 0
2584 -2581 -2582 0
-2585 30 0
-2585 68 0
2585 -30 -68 0
-2586 126 164 0
-2586 -126 -164 0
2586 -126 164 0
2586 126 -164 0
-2587 2585 0
-2587 -2586 0
2587 -2585 2586 0
-2588 2585 0
-2588 2586 0
2588 -2585 -2586 0
-2589 48 0
-2589 50 0
2589 -48 -50 0
-2590 144 146 0
-2590 -144 -146 0
2590 -144 146 0
2590 144 -146 0
-2591 2589 0
-2591 -2590 0
2591 -2589 2590 0
-2592 2589 0
-2592 2590 0
2592 -2589 -2590 0
-2593 13 0
-2593 89 0
2593 -13 -89 0
-2594 109 185 0
-2594 -109 -185 0
2594 -109 185 0
2594 109 -185 0
-2595 2593 0
-2595 -2594 0
2595 -2593 2594 0
-2596 2593 0
-2596 2594 0
2596 -2593 -2594 0
-2597 31 0
-2597 65 0
2597 -31 -65 0
-2598 127 161 0
-2598 -127 -161 0
2598 -127 161 0
2598 127 -161 0
-2599 2597 0
-2599 -2598 0
2599 -2597 2598 0
-2600 2597 0
-2600 2598 0
2600 -2597 -2598 0
-2601 45 0
-2601 51 0
2601 -45 -51 0
-2602 141 147 0
-2602 -141 -147 0
2602 -141 147 0
2602 141 -147 0
-2603 2601 0
-2603 -2602 0
2603 -2601 2602 0
-2604 2601 0
-2604 2602 0
2604 -2601 -2602 0
-2605 13 0
-2605 90 0
2605 -13 -90 0
-2606 109 186 0
-2606 -109 -186 0
2606 -109 186 0
2606 109 -186 0
-2607 2605 0
-2607 -2606 0
2607 -2605 2606 0
-2608 2605 0
-2608 2606 0
2608 -2605 -2606 0
-2609 31 0
-2609 66 0
2609 -31 -66 0
-2610 127 162 0
-2610 -127 -162 0
2610 -127 162 0
2610 127 -162 0
-2611 2609 0
-2611 -2610 0
2611 -2609 2610 0
-2612 2609 0
-2612 2610 0
2612 -2609 -2610 0
-2613 46 0
-2613 51 0
2613 -46 -51 0
-2614 142 147 0
-2614 -142 -147 0
2614 -142 147 0
2614 142 -147 0
-2615 2613 0
-2615 -2614 0
2615 -2613 2614 0
-2616 2613 0
-2616 2614 0
2616 -2613 -2614 0
-2617 13 0
-2617 91 0
2617 -13 -91 0
-2618 109 187 0
-2618 -109 -187 0
2618 -109 187 0
2618 109 -187 0
-2619 2617 0
-2619 -2618 0
2619 -2617 2618 0
-2620 2617 0
-2620 2618 0
2620 -2617 -2618 0
-2621 31 0
-2621 67 0
2621 -31 -67 0
-2622 127 163 0
-2622 -127 -163 0
2622 -127 163 0
2622 127 -163 0
-2623 2621 0
-2623 -2622 0
2623 -2621 2622 0
-2624 2621 0
-2624 2622 0
2624 -2621 -2622 0
-2625 47 0
-2625 51 0
2625 -47 -51 0
-2626 143 147 0
-2626 -143 -147 0
2626 -143 147 0
2626 143 -147 0
-2627 2625 0
-2627 -2626 0
2627 -2625 2626 0
-2628 2625 0
-2628 2626 0
2628 -2625 -2626 0
-2629 13 0
-2629 92 0
2629 -13 -92 0
-2630 109 188 0
-2630 -109 -188 0
2630 -109 188 0
2630 109 -188 0
-2631 2629 0
-2631 -2630 0
2631 -2629 2630 0
-2632 2629 0
-2632 2630 0
2632 -2629 -2630 0
-2633 31 0
-2633 68 0
2633 -31 -68 0
-2634 127 164 0
-2634 -127 -164 0
2634 -127 164 0
2634 127 -164 0
-2635 2633 0
-2635 -2634 0
2635 -2633 2634 0
-2636 2633 0
-2636 2634 0
2636 -2633 -2634 0
-2637 48 0
-2637 51 0
2637 -48 -51 0
-2638 144 147 0
-2638 -144 -147 0
2638 -144 147 0
2638 144 -147 0
-2639 2637 0
-2639 -2638 0
2639 -2637 2638 0
-2640 2637 0
-2640 2638 0
2640 -2637 -2638 0
-2641 13 0
-2641 93 0
2641 -13 -93 0
-2642 109 189 0
-2642 -109 -189 0
2642 -109 189 0
2642 109 -189 0
-2643 2641 0
-2643 -2642 0
2643 -2641 2642 0
-2644 2641 0
-2644 2642 0
2644 -2641 -2642 0
-2645 32 0
-2645 65 0
2645 -32 -65 0
-2646 128 161 0
-2646 -128 -161 0
2646 -128 161 0
2646 128 -161 0
-2647 2645 0
-2647 -2646 0
2647 -2645 2646 0
-2648 2645 0
-2648 2646 0
2648 -2645 -2646 0
-2649 45 0
-2649 52 0
2649 -45 -52 0
-2650 141 148 0
-2650 -141 -148 0
2650 -141 148 0
2650 141 -148 0
-2651 2649 0
-2651 -2650 0
2651 -2649 2650 0
-2652 2649 0
-2652 2650 0
2652 -2649 -2650 0
-2653 13 0
-2653 94 0
2653 -13 -94 0
-2654 109 190 0
-2654 -109 -190 0
2654 -109 190 0
2654 109 -190 0
-2655 2653 0
-2655 -2654 0
2655 -2653 2654 0
-2656 2653 0
-2656 2654 0
2656 -2653 -2654 0
-2657 32 0
-2657 66 0
2657 -32 -66 0
-2658 128 162 0
-2658 -128 -162 0
2658 -128 162 0
2658 128 -162 0
-2659 2657 0
-2659 -2658 0
2659 -2657 2658 0
-2660 2657 0
-2660 2658 0
2660 -2657 -2658 0
-2661 46 0
-2661 52 0
2661 -46 -52 0
-2662 142 148 0
-2662 -142 -148 0
2662 -142 148 0
2662 142 -148 0
-2663 2661 0
-2663 -2662 0
2663 -2661 2662 0
-2664 2661 0
-2664 2662 0
2664 -2661 -2662 0
-2665 13 0
-2665 95 0
2665 -13 -95 0
-2666 109 191 0
-2666 -109 -191 0
2666 -109 191 0
2666 109 -191 0
-2667 2665 0
-2667 -2666 0
2667 -2665 2666 0
-2668 2665 0
-2668 2666 0
2668 -2665 -2666 0
-2669 32 0
-2669 67 0
2669 -32 -67 0
-2670 128 163 0
-2670 -128 -163 0
2670 -128 163 0
2670 128 -163 0
-2671 2669 0
-2671 -2670 0
2671 -2669 2670 0
-2672 2669 0
-2672 2670 0
2672 -2669 -2670 0
-2673 47 0
-2673 52 0
2673 -47 -52 0
-2674 143 148 0
-2674 -143 -148 0
2674 -143 148 0
2674 143 -148 0
-2675 2673 0
-2675 -2674 0
2675 -2673 2674 0
-2676 2673 0
-2676 2674 0
2676 -2673 -2674 0
-2677 13 0
-2677 96 0
2677 -13 -96 0
-2678 109 192 0
-2678 -109 -192 0
2678 -109 192 0
2678 109 -192 0
-2679 2677 0
-2679 -2678 0
2679 -2677 2678 0
-2680 2677 0
-2680 2678 0
2680 -2677 -2678 0
-2681 32 0
-2681 68 0
2681 -32 -68 0
-2682 128 164 0
-2682 -128 -164 0
2682 -128 164 0
2682 128 -164 0
-2683 2681 0
-2683 -2682 0
2683 -2681 2682 0
-2684 2681 0
-2684 2682 0
2684 -2681 -2682 0
-2685 48 0
-2685 52 0
2685 -48 -52 0
-2686 144 148 0
-2686 -144 -148 0
2686 -144 148 0
2686 144 -148 0
-2687 2685 0
-2687 -2686 0
2687 -2685 2686 0
-2688 2685 0
-2688 2686 0
2688 -2685 -2686 0
-2689 14 0
-2689 81 0
2689 -14 -81 0
-2690 110 177 0
-2690 -110 -177 0
2690 -110 177 0
2690 110 -177 0
-2691 2689 0
-2691 -2690 0
2691 -2689 2690 0
-2692 2689 0
-2692 2690 0
2692 -2689 -2690 0
-2693 29 0
-2693 69 0
2693 -29 -69 0
-2694 125 165 0
-2694 -125 -165 0
2694 -125 165 0
2694 125 -165 0
-2695 2693 0
-2695 -2694 0
2695 -2693 2694 0
-2696 2693 0
-2696 2694 0
2696 -2693 -2694 0
-2697 45 0
-2697 53 0
2697 -45 -53 0
-2698 141 149 0
-2698 -141 -149 0
2698 -141 149 0
2698 141 -149 0
-2699 2697 0
-2699 -2698 0
2699 -2697 2698 0
-2700 2697 0
-2700 2698 0
2700 -2697 -2698 0
-2701 14 0
-2701 82 0
2701 -14 -82 0
-2702 110 178 0
-2702 -110 -178 0
2702 -110 178 0
2702 110 -178 0
-2703 2701 0
-2703 -2702 0
2703 -2701 2702 0
-2704 2701 0
-2704 2702 0
2704 -2701 -2702 0
-2705 29 0
-2705 70 0
2705 -29 -70 0
-2706 125 166 0
-2706 -125 -166 0
2706 -125 166 0
2706 125 -166 0
-2707 2705 0
-2707 -2706 0
2707 -2705 2706 0
-2708 2705 0
-2708 2706 0
2708 -2705 -2706 0
-2709 46 0
-2709 53 0
2709 -46 -53 0
-2710 142 149 0
-2710 -142 -149 0
2710 -142 149 0
2710 142 -149 0
-2711 2709 0
-2711 -2710 0
2711 -2709 2710 0
-2712 2709 0
-2712 2710 0
2712 -2709 -2710 0
-2713 14 0
-2713 83 0
2713 -14 -83 0
-2714 110 179 0
-2714 -110 -179 0
2714 -110 179 0
2714 110 -179 0
-2715 2713 0
-2715 -2714 0
2715 -2713 2714 0
-2716 2713 0
-2716 2714 0
2716 -2713 -2714 0
-2717 29 0
-2717 71 0
2717 -29 -71 0
-2718 125 167 0
-2718 -125 -167 0
2718 -125 167 0
2718 125 -167 0
-2719 2717 0
-2719 -2718 0
2719 -2717 2718 0
-2720 2717 0
-2720 2718 0
2720 -2717 -2718 0
-2721 47 0
-2721 53 0
2721 -47 -53 0
-2722 143 149 0
-2722 -143 -149 0
2722 -143 149 0
2722 143 -149 0
-2723 2721 0
-2723 -2722 0
2723 -2721 2722 0
-2724 2721 0
-2724 2722 0
2724 -2721 -2722 0
-2725 14 0
-2725 84 0
2725 -14 -84 0
-2726 110 180 0
-2726 -110 -180 0
2726 -110 180 0
2726 110 -180 0
-2727 2725 0
-2727 -2726 0
2727 -2725 2726 0
-2728 2725 0
-2728 2726 0
2728 -2725 -2726 0
-2729 29 0
-2729 72 0
2729 -29 -72 0
-2730 125 168 0
-2730 -125 -168 0
2730 -125 168 0
2730 125 -168 0
-2731 2729 0
-2731 -2730 0
2731 -2729 2730 0
-2732 2729 0
-2732 2730 0
2732 -2729 -2730 0
-2733 48 0
-2733 53 0
2733 -48 -53 0
-2734 144 149 0
-2734 -144 -149 0
2734 -144 149 0
2734 144 -149 0
-2735 2733 0
-2735 -2734 0
2735 -2733 2734 0
-2736 2733 0
-2736 2734 0
2736 -2733 -2734 0
-2737 14 0
-2737 85 0
2737 -14 -85 0
-2738 110 181 0
-2738 -110 -181 0
2738 -110 181 0
2738 110 -181 0
-2739 2737 0
-2739 -2738 0
2739 -2737 2738 0
-2740 2737 0
-2740 2738 0
2740 -2737 -2738 0
-2741 30 0
-2741 69 0
2741 -30 -69 0
-2742 126 165 0
-2742 -126 -165 0
2742 -126 165 0
2742 126 -165 0
-2743 2741 0
-2743 -2742 0
2743 -2741 2742 0
-2744 2741 0
-2744 2742 0
2744 -2741 -2742 0
-2745 45 0
-2745 54 0
2745 -45 -54 0
-2746 141 150 0
-2746 -141 -150 0
2746 -141 150 0
2746 141 -150 0
-2747 2745 0
-2747 -2746 0
2747 -2745 2746 0
-2748 2745 0
-2748 2746 0
2748 -2745 -2746 0
-2749 14 0
-2749 86 0
2749 -14 -86 0
-2750 110 182 0
-2750 -110 -182 0
2750 -110 182 0
2750 110 -182 0
-2751 2749 0
-2751 -2750 0
2751 -2749 2750 0
-2752 2749 0
-2752 2750 0
2752 -2749 -2750 0
-2753 30 0
-2753 70 0
2753 -30 -70 0
-2754 126 166 0
-2754 -126 -166 0
2754 -126 166 0
2754 126 -166 0
-2755 2753 0
-2755 -2754 0
2755 -2753 2754 0
-2756 2753 0
-2756 2754 0
2756 -2753 -2754 0
-2757 46 0
-2757 54 0
2757 -46 -54 0
-2758 142 150 0
-2758 -142 -150 0
2758 -142 150 0
2758 142 -150 0
-2759 2757 0
-2759 -2758 0
2759 -2757 2758 0
-2760 2757 0
-2760 2758 0
2760 -2757 -2758 0
-2761 14 0
-2761 87 0
2761 -14 -87 0
-2762 110 183 0
-2762 -110 -183 0
2762 -110 183 0
2762 110 -183 0
-2763 2761 0
-2763 -2762 0
2763 -2761 2762 0
-2764 2761 0
-2764 2762 0
2764 -2761 -2762 0
-2765 30 0
-2765 71 0
2765 -30 -71 0
-2766 126 167 0
-2766 -126 -167 0
2766 -126 167 0
2766 126 -167 0
-2767 2765 0
-2767 -2766 0
2767 -2765 2766 0
-2768 2765 0
-2768 2766 0
2768 -2765 -2766 0
-2769 47 0
-2769 54 0
2769 -47 -54 0
-2770 143 150 0
-2770 -143 -150 0
2770 -143 150 0
2770 143 -150 0
-2771 2769 0
-2771 -2770 0
2771 -2769 2770 0
-2772 2769 0
-2772 2770 0
2772 -2769 -2770 0
-2773 14 0
-2773 88 0
2773 -14 -88 0
-2774 110 184 0
-2774 -110 -184 0
2774 -110 184 0
2774 110 -184 0
-2775 2773 0
-2775 -2774 0
2775 -2773 2774 0
-2776 2773 0
-2776 2774 0
2776 -2773 -2774 0
-2777 30 0
-2777 72 0
2777 -30 -72 0
-2778 126 168 0
-2778 -126 -168 0
2778 -126 168 0
2778 126 -168 0
-2779 2777 0
-2779 -2778 0
2779 -2777 2778 0
-2780 2777 0
-2780 2778 0
2780 -2777 -2778 0
-2781 48 0
-2781 54 0
2781 -48 -54 0
-2782 144 150 0
-2782 -144 -150 0
2782 -144 150 0
2782 144 -150 0
-2783 2781 0
-2783 -2782 0
2783 -2781 2782 0
-2784 2781 0
-2784 2782 0
2784 -2781 -2782 0
-2785 14 0
-2785 89 0
2785 -14 -89 0
-2786 110 185 0
-2786 -110 -185 0
2786 -110 185 0
2786 110 -185 0
-2787 2785 0
-2787 -2786 0
2787 -2785 2786 0
-2788 2785 0
-2788 2786 0
2788 -2785 -2786 0
-2789 31 0
-2789 69 0
2789 -31 -69 0
-2790 127 165 0
-2790 -127 -165 0
2790 -127 165 0
2790 127 -165 0
-2791 2789 0
-2791 -2790 0
2791 -2789 2790 0
-2792 2789 0
-2792 2790 0
2792 -2789 -2790 0
-2793 45 0
-2793 55 0
2793 -45 -55 0
-2794 141 151 0
-2794 -141 -151 0
2794 -141 151 0
2794 141 -151 0
-2795 2793 0
-2795 -2794 0
2795 -2793 2794 0
-2796 2793 0
-2796 2794 0
2796 -2793 -2794 0
-2797 14 0
-2797 90 0
2797 -14 -90 0
-2798 110 186 0
-2798 -110 -186 0
2798 -110 186 0
2798 110 -186 0
-2799 2797 0
-2799 -2798 0
2799 -2797 2798 0
-2800 2797 0
-2800 2798 0
2800 -2797 -2798 0
-2801 31 0
-2801 70 0
2801 -31 -70 0
-2802 127 166 0
-2802 -127 -166 0
2802 -127 166 0
2802 127 -166 0
-2803 2801 0
-2803 -2802 0
2803 -2801 2802 0
-2804 2801 0
-2804 2802 0
2804 -2801 -2802 0
-2805 46 0
-2805 55 0
2805 -46 -55 0
-2806 142 151 0
-2806 -142 -151 0
2806 -142 151 0
2806 142 -151 0
-2807 2805 0
-2807 -2806 0
2807 -2805 2806 0
-2808 2805 0
-2808 2806 0
2808 -2805 -2806 0
-2809 14 0
-2809 91 0
2809 -14 -91 0
-2810 110 187 0
-2810 -110 -187 0
2810 -110 187 0
2810 110 -187 0
-2811 2809 0
-2811 -2810 0
2811 -2809 2810 0
-2812 2809 0
-2812 2810 0
2812 -2809 -2810 0
-2813 31 0
-2813 71 0
2813 -31 -71 0
-2814 127 167 0
-2814 -127 -167 0
2814 -127 167 0
2814 127 -167 0
-2815 2813 0
-2815 -2814 0
2815 -2813 2814 0
-2816 2813 0
-2816 2814 0
2816 -2813 -2814 0
-2817 47 0
-2817 55 0
2817 -47 -55 0
-2818 143 151 0
-2818 -143 -151 0
2818 -143 151 0
2818 143 -151 0
-2819 2817 0
-2819 -2818 0
2819 -2817 2818 0
-2820 2817 0
-2820 2818 0
2820 -2817 -2818 0
-2821 14 0
-2821 92 0
2821 -14 -92 0
-2822 110 188 0
-2822 -110 -188 0
2822 -110 188 0
2822 110 -188 0
-2823 2821 0
-2823 -2822 0
2823 -2821 2822 0
-2824 2821 0
-2824 2822 0
2824 -2821 -2822 0
-2825 31 0
-2825 72 0
2825 -31 -72 0
-2826 127 168 0
-2826 -127 -168 0
2826 -127 168 0
2826 127 -168 0
-2827 2825 0
-2827 -2826 0
2827 -2825 2826 0
-2828 2825 0
-2828 2826 0
2828 -2825 -2826 0
-2829 48 0
-2829 55 0
2829 -48 -55 0
-2830 144 151 0
-2830 -144 -151 0
2830 -144 151 0
2830 144 -151 0
-2831 2829 0
-2831 -2830 0
2831 -2829 2830 0
-2832 2829 0
-2832 2830 0
2832 -2829 -2830 0
-2833 14 0
-2833 93 0
2833 -14 -93 0
-2834 110 189 0
-2834 -110 -189 0
2834 -110 189 0
2834 110 -189 0
-2835 2833 0
-2835 -2834 0
2835 -2833 2834 0
-2836 2833 0
-2836 2834 0
2836 -2833 -2834 0
-2837 32 0
-2837 69 0
2837 -32 -69 0
-2838 128 165 0
-2838 -128 -165 0
2838 -128 165 0
2838 128 -165 0
-2839 2837 0
-2839 -2838 0
2839 -2837 2838 0
-2840 2837 0
-2840 2838 0
2840 -2837 -2838 0
-2841 45 0
-2841 56 0
2841 -45 -56 0
-2842 141 152 0
-2842 -141 -152 0
2842 -141 152 0
2842 141 -152 0
-2843 2841 0
-2843 -2842 0
2843 -2841 2842 0
-2844 2841 0
-2844 2842 0
2844 -2841 -2842 0
-2845 14 0
-2845 94 0
2845 -14 -94 0
-2846 110 190 0
-2846 -110 -190 0
2846 -110 190 0
2846 110 -190 0
-2847 2845 0
-2847 -2846 0
2847 -2845 2846 0
-2848 2845 0
-2848 2846 0
2848 -2845 -2846 0
-2849 32 0
-2849 70 0
2849 -32 -70 0
-2850 128 166 0
-2850 -128 -166 0
2850 -128 166 0
2850 128 -166 0
-2851 2849 0
-2851 -2850 0
2851 -2849 2850 0
-2852 2849 0
-2852 2850 0
2852 -2849 -2850 0
-2853 46 0
-2853 56 0
2853 -46 -56 0
-2854 142 152 0
-2854 -142 -152 0
2854 -142 152 0
2854 142 -152 0
-2855 2853 0
-2855 -2854 0
2855 -2853 2854 0
-2856 2853 0
-2856 2854 0
2856 -2853 -2854 0
-2857 14 0
-2857 95 0
2857 -14 -95 0
-2858 110 191 0
-2858 -110 -191 0
2858 -110 191 0
2858 110 -191 0
-2859 2857 0
-2859 -2858 0
2859 -2857 2858 0
-2860 2857 0
-2860 2858 0
2860 -2857 -2858 0
-2861 32 0
-2861 71 0
2861 -32 -71 0
-2862 128 167 0
-2862 -128 -167 0
2862 -128 167 0
2862 128 -167 0
-2863 2861 0
-2863 -2862 0
2863 -2861 2862 0
-2864 2861 0
-2864 2862 0
2864 -2861 -2862 0
-2865 47 0
-2865 56 0
2865 -47 -56 0
-2866 143 152 0
-2866 -143 -152 0
2866 -143 152 0
2866 143 -152 0
-2867 2865 0
-2867 -2866 0
2867 -2865 2866 0
-2868 2865 0
-2868 2866 0
2868 -2865 -2866 0
-2869 14 0
-2869 96 0
2869 -14 -96 0
-2870 110 192 0
-2870 -110 -192 0
2870 -110 192 0
2870 110 -192 0
-2871 2869 0
-2871 -2870 0
2871 -2869 2870 0
-2872 2869 0
-2872 2870 0
2872 -2869 -2870 0
-2873 32 0
-2873 72 0
2873 -32 -72 0
-2874 128 168 0
-2874 -128 -168 0
2874 -128 168 0
2874 128 -168 0
-2875 2873 0
-2875 -2874 0
2875 -2873 2874 0
-2876 2873 0
-2876 2874 0
2876 -2873 -2874 0
-2877 48 0
-2877 56 0
2877 -48 -56 0
-2878 144 152 0
-2878 -144 -152 0
2878 -144 152 0
2878 144 -152 0
-2879 2877 0
-2879 -2878 0
2879 -2877 2878 0
-2880 2877 0
-2880 2878 0
2880 -2877 -2878 0
-2881 15 0
-2881 81 0
2881 -15 -81 0
-2882 111 177 0
-2882 -111 -177 0
2882 -111 177 0
2882 111 -177 0
-2883 2881 0
-2883 -2882 0
2883 -2881 2882 0
-2884 2881 0
-2884 2882 0
2884 -2881 -2882 0
-2885 29 0
-2885 73 0
2885 -29 -73 0
-2886 125 169 0
-2886 -125 -169 0
2886 -125 169 0
2886 125 -169 0
-2887 2885 0
-2887 -2886 0
2887 -2885 2886 0
-2888 2885 0
-2888 2886 0
2888 -2885 -2886 0
-2889 45 0
-2889 57 0
2889 -45 -57 0
-2890 141 153 0
-2890 -141 -153 0
2890 -141 153 0
2890 141 -153 0
-2891 2889 0
-2891 -2890 0
2891 -2889 2890 0
-2892 2889 0
-2892 2890 0
2892 -2889 -2890 0
-2893 15 0
-2893 82 0
2893 -15 -82 0
-2894 111 178 0
-2894 -111 -178 0
2894 -111 178 0
2894 111 -178 0
-2895 2893 0
-2895 -2894 0
2895 -2893 2894 0
-2896 2893 0
-2896 2894 0
2896 -2893 -2894 0
-2897 29 0
-2897 74 0
2897 -29 -74 0
-2898 125 170 0
-2898 -125 -170 0
2898 -125 170 0
2898 125 -170 0
-2899 2897 0
-2899 -2898 0
2899 -2897 2898 0
-2900 2897 0
-2900 2898 0
2900 -2897 -2898 0
-2901 46 0
-2901 57 0
2901 -46 -57 0
-2902 142 153 0
-2902 -142 -153 0
2902 -142 153 0
2902 142 -153 0
-2903 2901 0
-2903 -2902 0
2903 -2901 2902 0
-2904 2901 0
-2904 2902 0
2904 -2901 -2902 0
-2905 15 0
-2905 83 0
2905 -15 -83 0
-2906 111 179 0
-2906 -111 -179 0
2906 -111 179 0
2906 111 -179 0
-2907 2905 0
-2907 -2906 0
2907 -2905 2906 0
-2908 2905 0
-2908 2906 0
2908 -2905 -2906 0
-2909 29 0
-2909 75 0
2909 -29 -75 0
-2910 125 171 0
-2910 -125 -171 0
2910 -125 171 0
2910 125 -171 0
-2911 2909 0
-2911 -2910 0
2911 -2909 2910 0
-2912 2909 0
-2912 2910 0
2912 -2909 -2910 0
-2913 47 0
-2913 57 0
2913 -47 -57 0
-2914 143 153 0
-2914 -143 -153 0
2914 -143 153 0
2914 143 -153 0
-2915 2913 0
-2915 -2914 0
2915 -2913 2914 0
-2916 2913 0
-2916 2914 0
2916 -2913 -2914 0
-2917 15 0
-2917 84 0
2917 -15 -84 0
-2918 111 180 0
-2918 -111 -180 0
2918 -111 180 0
2918 111 -180 0
-2919 2917 0
-2919 -2918 0
2919 -2917 2918 0
-2920 2917 0
-2920 2918 0
2920 -2917 -2918 0
-2921 29 0
-2921 76 0
2921 -29 -76 0
-2922 125 172 0
-2922 -125 -172 0
2922 -125 172 0
2922 125 -172 0
-2923 2921 0
-2923 -2922 0
2923 -2921 2922 0
-2924 2921 0
-2924 2922 0
2924 -2921 -2922 0
-2925 48 0
-2925 57 0
2925 -48 -57 0
-2926 144 153 0
-2926 -144 -153 0
2926 -144 153 0
2926 144 -153 0
-2927 2925 0
-2927 -2926 0
2927 -2925 2926 0
-2928 2925 0
-2928 2926 0
2928 -2925 -2926 0
-2929 15 0
-2929 85 0
2929 -15 -85 0
-2930 111 181 0
-2930 -111 -181 0
2930 -111 181 0
2930 111 -181 0
-2931 2929 0
-2931 -2930 0
2931 -2929 2930 0
-2932 2929 0
-2932 2930 0
2932 -2929 -2930 0
-2933 30 0
-2933 73 0
2933 -30 -73 0
-2934 126 169 0
-2934 -126 -169 0
2934 -126 169 0
2934 126 -169 0
-2935 2933 0
-2935 -2934 0
2935 -2933 2934 0
-2936 2933 0
-2936 2934 0
2936 -2933 -2934 0
-2937 45 0
-2937 58 0
2937 -45 -58 0
-2938 141 154 0
-2938 -141 -154 0
2938 -141 154 0
2938 141 -154 0
-2939 2937 0
-2939 -2938 0
2939 -2937 2938 0
-2940 2937 0
-2940 2938 0
2940 -2937 -2938 0
-2941 15 0
-2941 86 0
2941 -15 -86 0
-2942 111 182 0
-2942 -111 -182 0
2942 -111 182 0
2942 111 -182 0
-2943 2941 0
-2943 -2942 0
2943 -2941 2942 0
-2944 2941 0
-2944 2942 0
2944 -2941 -2942 0
-2945 30 0
-2945 74 0
2945 -30 -74 0
-2946 126 170 0
-2946 -126 -170 0
2946 -126 170 0
2946 126 -170 0
-2947 2945 0
-2947 -2946 0
2947 -2945 2946 0
-2948 2945 0
-2948 2946 0
2948 -2945 -2946 0
-2949 46 0
-2949 58 0
2949 -46 -58 0
-2950 142 154 0
-2950 -142 -154 0
2950 -142 154 0
2950 142 -154 0
-2951 2949 0
-2951 -2950 0
2951 -2949 2950 0
-2952 2949 0
-2952 2950 0
2952 -2949 -2950 0
-2953 15 0
-2953 87 0
2953 -15 -87 0
-2954 111 183 0
-2954 -111 -183 0
2954 -111 183 0
2954 111 -183 0
-2955 2953 0
-2955 -2954 0
2955 -2953 2954 0
-2956 2953 0
-2956 2954 0
2956 -2953 -2954 0
-2957 30 0
-2957 75 0
2957 -30 -75 0
-2958 126 171 0
-2958 -126 -171 0
2958 -126 171 0
2958 126 -171 0
-2959 2957 0
-2959 -2958 0
2959 -2957 2958 0
-2960 2957 0
-2960 2958 0
2960 -2957 -2958 0
-2961 47 0
-2961 58 0
2961 -47 -58 0
-2962 143 154 0
-2962 -143 -154 0
2962 -143 154 0
2962 143 -154 0
-2963 2961 0
-2963 -2962 0
2963 -2961 2962 0
-2964 2961 0
-2964 2962 0
2964 -2961 -2962 0
-2965 15 0
-2965 88 0
2965 -15 -88 0
-2966 111 184 0
-2966 -111 -184 0
2966 -111 184 0
2966 111 -184 0
-2967 2965 0
-2967 -2966 0
2967 -2965 2966 0
-2968 2965 0
-2968 2966 0
2968 -2965 -2966 0
-2969 30 0
-2969 76 0
2969 -30 -76 0
-2970 126 172 0
-2970 -126 -172 0
2970 -126 172 0
2970 126 -172 0
-2971 2969 0
-2971 -2970 0
2971 -2969 2970 0
-2972 2969 0
-2972 2970 0
2972 -2969 -2970 0
-2973 48 0
-2973 58 0
2973 -48 -58 0
-2974 144 154 0
-2974 -144 -154 0
2974 -144 154 0
2974 144 -154 0
-2975 2973 0
-2975 -2974 0
2975 -2973 2974 0
-2976 2973 0
-2976 2974 0
2976 -2973 -2974 0
-2977 15 0
-2977 89 0
2977 -15 -89 0
-2978 111 185 0
-2978 -111 -185 0
2978 -111 185 0
2978 111 -185 0
-2979 2977 0
-2979 -2978 0
2979 -2977 2978 0
-2980 2977 0
-2980 2978 0
2980 -2977 -2978 0
-2981 31 0
-2981 73 0
2981 -31 -73 0
-2982 127 169 0
-2982 -127 -169 0
2982 -127 169 0
2982 127 -169 0
-2983 2981 0
-2983 -2982 0
2983 -2981 2982 0
-2984 2981 0
-2984 2982 0
2984 -2981 -2982 0
-2985 45 0
-2985 59 0
2985 -45 -59 0
-2986 141 155 0
-2986 -141 -155 0
2986 -141 155 0
2986 141 -155 0
-2987 2985 0
-2987 -2986 0
2987 -2985 2986 0
-2988 2985 0
-2988 2986 0
2988 -2985 -2986 0
-2989 15 0
-2989 90 0
2989 -15 -90 0
-2990 111 186 0
-2990 -111 -186 0
2990 -111 186 0
2990 111 -186 0
-2991 2989 0
-2991 -2990 0
2991 -2989 2990 0
-2992 2989 0
-2992 2990 0
2992 -2989 -2990 0
-2993 31 0
-2993 74 0
2993 -31 -74 0
-2994 127 170 0
-2994 -127 -170 0
2994 -127 170 0
2994 127 -170 0
-2995 2993 0
-2995 -2994 0
2995 -2993 2994 0
-2996 2993 0
-2996 2994 0
2996 -2993 -2994 0
-2997 46 0
-2997 59 0
2997 -46 -59 0
-2998 142 155 0
-2998 -142 -155 0
2998 -142 155 0
2998 142 -155 0
-2999 2997 0
-2999 -2998 0
2999 -2997 2998 0
-3000 2997 0
-3000 2998 0
3000 -2997 -2998 0
-3001 15 0
-3001 91 0
3001 -15 -91 0
-3002 111 187 0
-3002 -111 -187 0
3002 -111 187 0
3002 111 -187 0
-3003 3001 0
-3003 -3002 0
3003 -3001 3002 0
-3004 3001 0
-3004 3002 0
3004 -3001 -3002 0
-3005 31 0
-3005 75 0
3005 -31 -75 0
-3006 127 171 0
-3006 -127 -171 0
3006 -127 171 0
3006 127 -171 0
-3007 3005 0
-3007 -3006 0
3007 -3005 3006 0
-3008 3005 0
-3008 3006 0
3008 -3005 -3006 0
-3009 47 0
-3009 59 0
3009 -47 -59 0
-3010 143 155 0
-3010 -143 -155 0
3010 -143 155 0
3010 143 -155 0
-3011 3009 0
-3011 -3010 0
3011 -3009 3010 0
-3012 3009 0
-3012 3010 0
3012 -3009 -3010 0
-3013 15 0
-3013 92 0
3013 -15 -92 0
-3014 111 188 0
-3014 -111 -188 0
3014 -111 188 0
3014 111 -188 0
-3015 3013 0
-3015 -3014 0
3015 -3013 3014 0
-3016 3013 0
-3016 3014 0
3016 -3013 -3014 0
-3017 31 0
-3017 76 0
3017 -31 -76 0
-3018 127 172 0
-3018 -127 -172 0
3018 -127 172 0
3018 127 -172 0
-3019 3017 0
-3019 -3018 0
3019 -3017 3018 0
-3020 3017 0
-3020 3018 0
3020 -3017 -3018 0
-3021 48 0
-3021 59 0
3021 -48 -59 0
-3022 144 155 0
-3022 -144 -155 0
3022 -144 155 0
3022 144 -155 0
-3023 3021 0
-3023 -3022 0
3023 -3021 3022 0
-3024 3021 0
-3024 3022 0
3024 -3021 -3022 0
-3025 15 0
-3025 93 0
3025 -15 -93 0
-3026 111 189 0
-3026 -111 -189 0
3026 -111 189 0
3026 111 -189 0
-3027 3025 0
-3027 -3026 0
3027 -3025 3026 0
-3028 3025 0
-3028 3026 0
3028 -3025 -3026 0
-3029 32 0
-3029 73 0
3029 -32 -73 0
-3030 128 169 0
-3030 -128 -169 0
3030 -128 169 0
3030 128 -169 0
-3031 3029 0
-3031 -3030 0
3031 -3029 3030 0
-3032 3029 0
-3032 3030 0
3032 -3029 -3030 0
-3033 45 0
-3033 60 0
3033 -45 -60 0
-3034 141 156 0
-3034 -141 -156 0
3034 -141 156 0
3034 141 -156 0
-3035 3033 0
-3035 -3034 0
3035 -3033 3034 0
-3036 3033 0
-3036 3034 0
3036 -3033 -3034 0
-3037 15 0
-3037 94 0
3037 -15 -94 0
-3038 111 190 0
-3038 -111 -190 0
3038 -111 190 0
3038 111 -190 0
-3039 3037 0
-3039 -3038 0
3039 -3037 3038 0
-3040 3037 0
-3040 3038 0
3040 -3037 -3038 0
-3041 32 0
-3041 74 0
3041 -32 -74 0
-3042 128 170 0
-3042 -128 -170 0
3042 -128 170 0
3042 128 -170 0
-3043 3041 0
-3043 -3042 0
3043 -3041 3042 0
-3044 3041 0
-3044 3042 0
3044 -3041 -3042 0
-3045 46 0
-3045 60 0
3045 -46 -60 0
-3046 142 156 0
-3046 -142 -156 0
3046 -142 156 0
3046 142 -156 0
-3047 3045 0
-3047 -3046 0
3047 -3045 3046 0
-3048 3045 0
-3048 3046 0
3048 -3045 -3046 0
-3049 15 0
-3049 95 0
3049 -15 -95 0
-3050 111 191 0
-3050 -111 -191 0
3050 -111 191 0
3050 111 -191 0
-3051 3049 0
-3051 -3050 0
3051 -3049 3050 0
-3052 3049 0
-3052 3050 0
3052 -3049 -3050 0
-3053 32 0
-3053 75 0
3053 -32 -75 0
-3054 128 171 0
-3054 -128 -171 0
3054 -128 171 0
3054 128 -171 0
-3055 3053 0
-3055 -3054 0
3055 -3053 3054 0
-3056 3053 0
-3056 3054 0
3056 -3053 -3054 0
-3057 47 0
-3057 60 0
3057 -47 -60 0
-3058 143 156 0
-3058 -143 -156 0
3058 -143 156 0
3058 143 -156 0
-3059 3057 0
-3059 -3058 0
3059 -3057 3058 0
-3060 3057 0
-3060 3058 0
3060 -3057 -3058 0
-3061 15 0
-3061 96 0
3061 -15 -96 0
-3062 111 192 0
-3062 -111 -192 0
3062 -111 192 0
3062 111 -192 0
-3063 3061 0
-3063 -3062 0
3063 -3061 3062 0
-3064 3061 0
-3064 3062 0
3064 -3061 -3062 0
-3065 32 0
-3065 76 0
3065 -32 -76 0
-3066 128 172 0
-3066 -128 -172 0
3066 -128 172 0
3066 128 -172 0
-3067 3065 0
-3067 -3066 0
3067 -3065 3066 0
-3068 3065 0
-3068 3066 0
3068 -3065 -3066 0
-3069 48 0
-3069 60 0
3069 -48 -60 0
-3070 144 156 0
-3070 -144 -156 0
3070 -144 156 0
3070 144 -156 0
-3071 3069 0
-3071 -3070 0
3071 -3069 3070 0
-3072 3069 0
-3072 3070 0
3072 -3069 -3070 0
-3073 16 0
-3073 81 0
3073 -16 -81 0
-3074 112 177 0
-3074 -112 -177 0
3074 -112 177 0
3074 112 -177 0
-3075 3073 0
-3075 -3074 0
3075 -3073 3074 0
-3076 3073 0
-3076 3074 0
3076 -3073 -3074 0
-3077 29 0
-3077 77 0
3077 -29 -77 0
-3078 125 173 0
-3078 -125 -173 0
3078 -125 173 0
3078 125 -173 0
-3079 3077 0
-3079 -3078 0
3079 -3077 3078 0
-3080 3077 0
-3080 3078 0
3080 -3077 -3078 0
-3081 45 0
-3081 61 0
3081 -45 -61 0
-3082 141 157 0
-3082 -141 -157 0
3082 -141 157 0
3082 141 -157 0
-3083 3081 0
-3083 -3082 0
3083 -3081 3082 0
-3084 3081 0
-3084 3082 0
3084 -3081 -3082 0
-3085 16 0
-3085 82 0
3085 -16 -82 0
-3086 112 178 0
-3086 -112 -178 0
3086 -112 178 0
3086 112 -178 0
-3087 3085 0
-3087 -3086 0
3087 -3085 3086 0
-3088 3085 0
-3088 3086 0
3088 -3085 -3086 0
-3089 29 0
-3089 78 0
3089 -29 -78 0
-3090 125 174 0
-3090 -125 -174 0
3090 -125 174 0
3090 125 -174 0
-3091 3089 0
-3091 -3090 0
3091 -3089 3090 0
-3092 3089 0
-3092 3090 0
3092 -3089 -3090 0
-3093 46 0
-3093 61 0
3093 -46 -61 0
-3094 142 157 0
-3094 -142 -157 0
3094 -142 157 0
3094 142 -157 0
-3095 3093 0
-3095 -3094 0
3095 -3093 3094 0
-3096 3093 0
-3096 3094 0
3096 -3093 -3094 0
-3097 16 0
-3097 83 0
3097 -16 -83 0
-3098 112 179 0
-3098 -112 -179 0
3098 -112 179 0
3098 112 -179 0
-3099 3097 0
-3099 -3098 0
3099 -3097 3098 0
-3100 3097 0
-3100 3098 0
3100 -3097 -3098 0
-3101 29 0
-3101 79 0
3101 -29 -79 0
-3102 125 175 0
-3102 -125 -175 0
3102 -125 175 0
3102 125 -175 0
-3103 3101 0
-3103 -3102 0
3103 -3101 3102 0
-3104 3101 0
-3104 3102 0
3104 -3101 -3102 0
-3105 47 0
-3105 61 0
3105 -47 -61 0
-3106 143 157 0
-3106 -143 -157 0
3106 -143 157 0
3106 143 -157 0
-3107 3105 0
-3107 -3106 0
3107 -3105 3106 0
-3108 3105 0
-3108 3106 0
3108 -3105 -3106 0
-3109 16 0
-3109 84 0
3109 -16 -84 0
-3110 112 180 0
-3110 -112 -180 0
3110 -112 180 0
3110 112 -180 0
-3111 3109 0
-3111 -3110 0
3111 -3109 3110 0
-3112 3109 0
-3112 3110 0
3112 -3109 -3110 0
-3113 29 0
-3113 80 0
3113 -29 -80 0
-3114 125 176 0
-3114 -125 -176 0
3114 -125 176 0
3114 125 -176 0
-3115 3113 0
-3115 -3114 0
3115 -3113 3114 0
-3116 3113 0
-3116 3114 0
3116 -3113 -3114 0
-3117 48 0
-3117 61 0
3117 -48 -61 0
-3118 144 157 0
-3118 -144 -157 0
3118 -144 157 0
3118 144 -157 0
-3119 3117 0
-3119 -3118 0
3119 -3117 3118 0
-3120 3117 0
-3120 3118 0
3120 -3117 -3118 0
-3121 16 0
-3121 85 0
3121 -16 -85 0
-3122 112 181 0
-3122 -112 -181 0
3122 -112 181 0
3122 112 -181 0
-3123 3121 0
-3123 -3122 0
3123 -3121 3122 0
-3124 3121 0
-3124 3122 0
3124 -3121 -3122 0
-3125 30 0
-3125 77 0
3125 -30 -77 0
-3126 126 173 0
-3126 -126 -173 0
3126 -126 173 0
3126 126 -173 0
-3127 3125 0
-3127 -3126 0
3127 -3125 3126 0
-3128 3125 0
-3128 3126 0
3128 -3125 -3126 0
-3129 45 0
-3129 62 0
3129 -45 -62 0
-3130 141 158 0
-3130 -141 -158 0
3130 -141 158 0
3130 141 -158 0
-3131 3129 0
-3131 -3130 0
3131 -3129 3130 0
-3132 3129 0
-3132 3130 0
3132 -3129 -3130 0
-3133 16 0
-3133 86 0
3133 -16 -86 0
-3134 112 182 0
-3134 -112 -182 0
3134 -112 182 0
3134 112 -182 0
-3135 3133 0
-3135 -3134 0
3135 -3133 3134 0
-3136 3133 0
-3136 3134 0
3136 -3133 -3134 0
-3137 30 0
-3137 78 0
3137 -30 -78 0
-3138 126 174 0
-3138 -126 -174 0
3138 -126 174 0
3138 126 -174 0
-3139 3137 0
-3139 -3138 0
3139 -3137 3138 0
-3140 3137 0
-3140 3138 0
3140 -3137 -3138 0
-3141 46 0
-3141 62 0
3141 -46 -62 0
-3142 142 158 0
-3142 -142 -158 0
3142 -142 158 0
3142 142 -158 0
-3143 3141 0
-3143 -3142 0
3143 -3141 3142 0
-3144 3141 0
-3144 3142 0
3144 -3141 -3142 0
-3145 16 0
-3145 87 0
3145 -16 -87 0
-3146 112 183 0
-3146 -112 -183 0
3146 -112 183 0
3146 112 -183 0
-3147 3145 0
-3147 -3146 0
3147 -3145 3146 0
-3148 3145 0
-3148 3146 0
3148 -3145 -3146 0
-3149 30 0
-3149 79 0
3149 -30 -79 0
-3150 126 175 0
-3150 -126 -175 0
3150 -126 175 0
3150 126 -175 0
-3151 3149 0
-3151 -3150 0
3151 -3149 3150 0
-3152 3149 0
-3152 3150 0
3152 -3149 -3150 0
-3153 47 0
-3153 62 0
3153 -47 -62 0
-3154 143 158 0
-3154 -143 -158 0
3154 -143 158 0
3154 143 -158 0
-3155 3153 0
-3155 -3154 0
3155 -3153 3154 0
-3156 3153 0
-3156 3154 0
3156 -3153 -3154 0
-3157 16 0
-3157 88 0
3157 -16 -88 0
-3158 112 184 0
-3158 -112 -184 0
3158 -112 184 0
3158 112 -184 0
-3159 3157 0
-3159 -3158 0
3159 -3157 3158 0
-3160 3157 0
-3160 3158 0
3160 -3157 -3158 0
-3161 30 0
-3161 80 0
3161 -30 -80 0
-3162 126 176 0
-3162 -126 -176 0
3162 -126 176 0
3162 126 -176 0
-3163 3161 0
-3163 -3162 0
3163 -3161 3162 0
-3164 3161 0
-3164 3162 0
3164 -3161 -3162 0
-3165 48 0
-3165 62 0
3165 -48 -62 0
-3166 144 158 0
-3166 -144 -158 0
3166 -144 158 0
3166 144 -158 0
-3167 3165 0
-3167 -3166 0
3167 -3165 3166 0
-3168 3165 0
-3168 3166 0
3168 -3165 -3166 0
-3169 16 0
-3169 89 0
3169 -16 -89 0
-3170 112 185 0
-3170 -112 -185 0
3170 -112 185 0
3170 112 -185 0
-3171 3169 0
-3171 -3170 0
3171 -3169 3170 0
-3172 3169 0
-3172 3170 0
3172 -3169 -3170 0
-3173 31 0
-3173 77 0
3173 -31 -77 0
-3174 127 173 0
-3174 -127 -173 0
3174 -127 173 0
3174 127 -173 0
-3175 3173 0
-3175 -3174 0
3175 -3173 3174 0
-3176 3173 0
-3176 3174 0
3176 -3173 -3174 0
-3177 45 0
-3177 63 0
3177 -45 -63 0
-3178 141 159 0
-3178 -141 -159 0
3178 -141 159 0
3178 141 -159 0
-3179 3177 0
-3179 -3178 0
3179 -3177 3178 0
-3180 3177 0
-3180 3178 0
3180 -3177 -3178 0
-3181 16 0
-3181 90 0
3181 -16 -90 0
-3182 112 186 0
-3182 -112 -186 0
3182 -112 186 0
3182 112 -186 0
-3183 3181 0
-3183 -3182 0
3183 -3181 3182 0
-3184 3181 0
-3184 3182 0
3184 -3181 -3182 0
-3185 31 0
-3185 78 0
3185 -31 -78 0
-3186 127 174 0
-3186 -127 -174 0
3186 -127 174 0
3186 127 -174 0
-3187 3185 0
-3187 -3186 0
3187 -3185 3186 0
-3188 3185 0
-3188 3186 0
3188 -3185 -3186 0
-3189 46 0
-3189 63 0
3189 -46 -63 0
-3190 142 159 0
-3190 -142 -159 0
3190 -142 159 0
3190 142 -159 0
-3191 3189 0
-3191 -3190 0
3191 -3189 3190 0
-3192 3189 0
-3192 3190 0
3192 -3189 -3190 0
-3193 16 0
-3193 91 0
3193 -16 -91 0
-3194 112 187 0
-3194 -112 -187 0
3194 -112 187 0
3194 112 -187 0
-3195 3193 0
-3195 -3194 0
3195 -3193 3194 0
-3196 3193 0
-3196 3194 0
3196 -3193 -3194 0
-3197 31 0
-3197 79 0
3197 -31 -79 0
-3198 127 175 0
-3198 -127 -175 0
3198 -127 175 0
3198 127 -175 0
-3199 3197 0
-3199 -3198 0
3199 -3197 3198 0
-3200 3197 0
-3200 3198 0
3200 -3197 -3198 0
-3201 47 0
-3201 63 0
3201 -47 -63 0
-3202 143 159 0
-3202 -143 -159 0
3202 -143 159 0
3202 143 -159 0
-3203 3201 0
-3203 -3202 0
3203 -3201 3202 0
-3204 3201 0
-3204 3202 0
3204 -3201 -3202 0
-3205 16 0
-3205 92 0
3205 -16 -92 0
-3206 112 188 0
-3206 -112 -188 0
3206 -112 188 0
3206 112 -188 0
-3207 3205 0
-3207 -3206 0
3207 -3205 3206 0
-3208 3205 0
-3208 3206 0
3208 -3205 -3206 0
-3209 31 0
-3209 80 0
3209 -31 -80 0
-3210 127 176 0
-3210 -127 -176 0
3210 -127 176 0
3210 127 -176 0
-3211 3209 0
-3211 -3210 0
3211 -3209 3210 0
-3212 3209 0
-3212 3210 0
3212 -3209 -3210 0
-3213 48 0
-3213 63 0
3213 -48 -63 0
-3214 144 159 0
-3214 -144 -159 0
3214 -144 159 0
3214 144 -159 0
-3215 3213 0
-3215 -3214 0
3215 -3213 3214 0
-3216 3213 0
-3216 3214 0
3216 -3213 -3214 0
-3217 16 0
-3217 93 0
3217 -16 -93 0
-3218 112 189 0
-3218 -112 -189 0
3218 -112 189 0
3218 112 -189 0
-3219 3217 0
-3219 -3218 0
3219 -3217 3218 0
-3220 3217 0
-3220 3218 0
3220 -3217 -3218 0
-3221 32 0
-3221 77 0
3221 -32 -77 0
-3222 128 173 0
-3222 -128 -173 0
3222 -128 173 0
3222 128 -173 0
-3223 3221 0
-3223 -3222 0
3223 -3221 3222 0
-3224 3221 0
-3224 3222 0
3224 -3221 -3222 0
-3225 45 0
-3225 64 0
3225 -45 -64 0
-3226 141 160 0
-3226 -141 -160 0
3226 -141 160 0
3226 141 -160 0
-3227 3225 0
-3227 -3226 0
3227 -3225 3226 0
-3228 3225 0
-3228 3226 0
3228 -3225 -3226 0
-3229 16 0
-3229 94 0
3229 -16 -94 0
-3230 112 190 0
-3230 -112 -190 0
3230 -112 190 0
3230 112 -190 0
-3231 3229 0
-3231 -3230 0
3231 -3229 3230 0
-3232 3229 0
-3232 3230 0
3232 -3229 -3230 0
-3233 32 0
-3233 78 0
3233 -32 -78 0
-3234 128 174 0
-3234 -128 -174 0
3234 -128 174 0
3234 128 -174 0
-3235 3233 0
-3235 -3234 0
3235 -3233 3234 0
-3236 3233 0
-3236 3234 0
3236 -3233 -3234 0
-3237 46 0
-3237 64 0
3237 -46 -64 0
-3238 142 160 0
-3238 -142 -160 0
3238 -142 160 0
3238 142 -160 0
-3239 3237 0
-3239 -3238 0
3239 -3237 3238 0
-3240 3237 0
-3240 3238 0
3240 -3237 -3238 0
-3241 16 0
-3241 95 0
3241 -16 -95 0
-3242 112 191 0
-3242 -112 -191 0
3242 -112 191 0
3242 112 -191 0
-3243 3241 0
-3243 -3242 0
3243 -3241 3242 0
-3244 3241 0
-3244 3242 0
3244 -3241 -3242 0
-3245 32 0
-3245 79 0
3245 -32 -79 0
-3246 128 175 0
-3246 -128 -175 0
3246 -128 175 0
3246 128 -175 0
-3247 3245 0
-3247 -3246 0
3247 -3245 3246 0
-3248 3245 0
-3248 3246 0
3248 -3245 -3246 0
-3249 47 0
-3249 64 0
3249 -47 -64 0
-3250 143 160 0
-3250 -143 -160 0
3250 -143 160 0
3250 143 -160 0
-3251 3249 0
-3251 -3250 0
3251 -3249 3250 0
-3252 3249 0
-3252 3250 0
3252 -3249 -3250 0
-3253 16 0
-3253 96 0
3253 -16 -96 0
-3254 112 192 0
-3254 -112 -192 0
3254 -112 192 0
3254 112 -192 0
-3255 3253 0
-3255 -3254 0
3255 -3253 3254 0
-3256 3253 0
-3256 3254 0
3256 -3253 -3254 0
-3257 32 0
-3257 80 0
3257 -32 -80 0
-3258 128 176 0
-3258 -128 -176 0
3258 -128 176 0
3258 128 -176 0
-3259 3257 0
-3259 -3258 0
3259 -3257 3258 0
-3260 3257 0
-3260 3258 0
3260 -3257 -3258 0
-3261 48 0
-3261 64 0
3261 -48 -64 0
-3262 144 160 0
-3262 -144 -160 0
3262 -144 160 0
3262 144 -160 0
-3263 3261 0
-3263 -3262 0
3263 -3261 3262 0
-3264 3261 0
-3264 3262 0
3264 -3261 -3262 0
-3265 195 0
3265 -195 0
-3266 3265 199 0
3266 -3265 0
3266 -199 0
-3267 3265 0
-3267 199 0
3267 -3265 -199 0
-3268 3266 203 0
3268 -3266 0
3268 -203 0
-3269 3267 3266 0
-3269 3267 203 0
3269 -3267 0
3269 -3266 -203 0
-3270 3267 0
-3270 203 0
3270 -3267 -203 0
-3271 196 0
3271 -196 0
-3272 3271 200 0
3272 -3271 0
3272 -200 0
-3273 3271 0
-3273 200 0
3273 -3271 -200 0
-3274 3272 204 0
3274 -3272 0
3274 -204 0
-3275 3273 3272 0
-3275 3273 204 0
3275 -3273 0
3275 -3272 -204 0
-3276 3273 0
-3276 204 0
3276 -3273 -204 0
-3274 3269 0
3274 -3269 0
-3275 3270 0
3275 -3270 0
-3276 0
3268 0
-3277 207 0
3277 -207 0
-3278 3277 211 0
3278 -3277 0
3278 -211 0
-3279 3277 0
-3279 211 0
3279 -3277 -211 0
-3280 3278 215 0
3280 -3278 0
3280 -215 0
-3281 3279 3278 0
-3281 3279 215 0
3281 -3279 0
3281 -3278 -215 0
-3282 3279 0
-3282 215 0
3282 -3279 -215 0
-3283 208 0
3283 -208 0
-3284 3283 212 0
3284 -3283 0
3284 -212 0
-3285 3283 0
-3285 212 0
3285 -3283 -212 0
-3286 3284 216 0
3286 -3284 0
3286 -216 0
-3287 3285 3284 0
-3287 3285 216 0
3287 -3285 0
3287 -3284 -216 0
-3288 3285 0
-3288 216 0
3288 -3285 -216 0
-3286 3280 0
3286 -3280 0
-3287 3281 0
3287 -3281 0
-3288 3282 0
3288 -3282 0
-3289 219 0
3289 -219 0
-3290 3289 223 0
3290 -3289 0
3290 -223 0
-3291 3289 0
-3291 223 0
3291 -3289 -223 0
-3292 3290 227 0
3292 -3290 0
3292 -227 0
-3293 3291 3290 0
-3293 3291 227 0
3293 -3291 0
3293 -3290 -227 0
-3294 3291 0
-3294 227 0
3294 -3291 -227 0
-3295 220 0
3295 -220 0
-3296 3295 224 0
3296 -3295 0
3296 -224 0
-3297 3295 0
-3297 224 0
3297 -3295 -224 0
-3298 3296 228 0
3298 -3296 0
3298 -228 0
-3299 3297 3296 0
-3299 3297 228 0
3299 -3297 0
3299 -3296 -228 0
-3300 3297 0
-3300 228 0
3300 -3297 -228 0
-3298 3292 0
3298 -3292 0
-3299 3293 0
3299 -3293 0
-3300 3294 0
3300 -3294 0
-3301 231 0
3301 -231 0
-3302 3301 235 0
3302 -3301 0
3302 -235 0
-3303 3301 0
-3303 235 0
3303 -3301 -235 0
-3304 3302 239 0
3304 -3302 0
3304 -239 0
-3305 3303 3302 0
-3305 3303 239 0
3305 -3303 0
3305 -3302 -239 0
-3306 3303 0
-3306 239 0
3306 -3303 -239 0
-3307 232 0
3307 -232 0
-3308 3307 236 0
3308 -3307 0
3308 -236 0
-3309 3307 0
-3309 236 0
3309 -3307 -236 0
-3310 3308 240 0
3310 -3308 0
3310 -240 0
-3311 3309 3308 0
-3311 3309 240 0
3311 -3309 0
3311 -3308 -240 0
-3312 3309 0
-3312 240 0
3312 -3309 -240 0
-3310 3304 0
3310 -3304 0
-3311 3305 0
3311 -3305 0
-3312 3306 0
3312 -3306 0
-3313 243 0
3313 -243 0
-3314 3313 247 0
3314 -3313 0
3314 -247 0
-3315 3313 0
-3315 247 0
3315 -3313 -247 0
-3316 3314 251 0
3316 -3314 0
3316 -251 0
-3317 3315 3314 0
-3317 3315 251 0
3317 -3315 0
3317 -3314 -251 0
-3318 3315 0
-3318 251 0
3318 -3315 -251 0
-3319 244 0
3319 -244 0
-3320 3319 248 0
3320 -3319 0
3320 -248 0
-3321 3319 0
-3321 248 0
3321 -3319 -248 0
-3322 3320 252 0
3322 -3320 0
3322 -252 0
-3323 3321 3320 0
-3323 3321 252 0
3323 -3321 0
3323 -3320 -252 0
-3324 3321 0
-3324 252 0
3324 -3321 -252 0
-3322 3316 0
3322 -3316 0
-3323 3317 0
3323 -3317 0
-3324 3318 0
3324 -3318 0
-3325 255 0
3325 -255 0
-3326 3325 259 0
3326 -3325 0
3326 -259 0
-3327 3325 0
-3327 259 0
3327 -3325 -259 0
-3328 3326 263 0
3328 -3326 0
3328 -263 0
-3329 3327 3326 0
-3329 3327 263 0
3329 -3327 0
3329 -3326 -263 0
-3330 3327 0
-3330 263 0
3330 -3327 -263 0
-3331 256 0
3331 -256 0
-3332 3331 260 0
3332 -3331 0
3332 -260 0
-3333 3331 0
-3333 260 0
3333 -3331 -260 0
-3334 3332 264 0
3334 -3332 0
3334 -264 0
-3335 3333 3332 0
-3335 3333 264 0
3335 -3333 0
3335 -3332 -264 0
-3336 3333 0
-3336 264 0
3336 -3333 -264 0
-3334 3328 0
3334 -3328 0
-3335 3329 0
3335 -3329 0
-3336 3330 0
3336 -3330 0
-3337 267 0
3337 -267 0
-3338 3337 271 0
3338 -3337 0
3338 -271 0
-3339 3337 0
-3339 271 0
3339 -3337 -271 0
-3340 3338 275 0
3340 -3338 0
3340 -275 0
-3341 3339 3338 0
-3341 3339 275 0
3341 -3339 0
3341 -3338 -275 0
-3342 3339 0
-3342 275 0
3342 -3339 -275 0
-3343 268 0
3343 -268 0
-3344 3343 272 0
3344 -3343 0
3344 -272 0
-3345 3343 0
-3345 272 0
3345 -3343 -272 0
-3346 3344 276 0
3346 -3344 0
3346 -276 0
-3347 3345 3344 0
-3347 3345 276 0
3347 -3345 0
3347 -3344 -276 0
-3348 3345 0
-3348 276 0
3348 -3345 -276 0
-3346 3340 0
3346 -3340 0
-3347 3341 0
3347 -3341 0
-3348 3342 0
3348 -3342 0
-3349 279 0
3349 -279 0
-3350 3349 283 0
3350 -3349 0
3350 -283 0
-3351 3349 0
-3351 283 0
3351 -3349 -283 0
-3352 3350 287 0
3352 -3350 0
3352 -287 0
-3353 3351 3350 0
-3353 3351 287 0
3353 -3351 0
3353 -3350 -287 0
-3354 3351 0
-3354 287 0
3354 -3351 -287 0
-3355 280 0
3355 -280 0
-3356 3355 284 0
3356 -3355 0
3356 -284 0
-3357 3355 0
-3357 284 0
3357 -3355 -284 0
-3358 3356 288 0
3358 -3356 0
3358 -288 0
-3359 3357 3356 0
-3359 3357 288 0
3359 -3357 0
3359 -3356 -288 0
-3360 3357 0
-3360 288 0
3360 -3357 -288 0
-3358 3352 0
3358 -3352 0
-3359 3353 0
3359 -3353 0
-3360 3354 0
3360 -3354 0
-3361 291 0
3361 -291 0
-3362 3361 295 0
3362 -3361 0
3362 -295 0
-3363 3361 0
-3363 295 0
3363 -3361 -295 0
-3364 3362 299 0
3364 -3362 0
3364 -299 0
-3365 3363 3362 0
-3365 3363 299 0
3365 -3363 0
3365 -3362 -299 0
-3366 3363 0
-3366 299 0
3366 -3363 -299 0
-3367 292 0
3367 -292 0
-3368 3367 296 0
3368 -3367 0
3368 -296 0
-3369 3367 0
-3369 296 0
3369 -3367 -296 0
-3370 3368 300 0
3370 -3368 0
3370 -300 0
-3371 3369 3368 0
-3371 3369 300 0
3371 -3369 0
3371 -3368 -300 0
-3372 3369 0
-3372 300 0
3372 -3369 -300 0
-3370 3364 0
3370 -3364 0
-3371 3365 0
3371 -3365 0
-3372 3366 0
3372 -3366 0
-3373 303 0
3373 -303 0
-3374 3373 307 0
3374 -3373 0
3374 -307 0
-3375 3373 0
-3375 307 0
3375 -3373 -307 0
-3376 3374 311 0
3376 -3374 0
3376 -311 0
-3377 3375 3374 0
-3377 3375 311 0
3377 -3375 0
3377 -3374 -311 0
-3378 3375 0
-3378 311 0
3378 -3375 -311 0
-3379 304 0
3379 -304 0
-3380 3379 308 0
3380 -3379 0
3380 -308 0
-3381 3379 0
-3381 308 0
3381 -3379 -308 0
-3382 3380 312 0
3382 -3380 0
3382 -312 0
-3383 3381 3380 0
-3383 3381 312 0
3383 -3381 0
3383 -3380 -312 0
-3384 3381 0
-3384 312 0
3384 -3381 -312 0
-3382 3376 0
3382 -3376 0
-3383 3377 0
3383 -3377 0
-3384 3378 0
3384 -3378 0
-3385 315 0
3385 -315 0
-3386 3385 319 0
3386 -3385 0
3386 -319 0
-3387 3385 0
-3387 319 0
3387 -3385 -319 0
-3388 3386 323 0
3388 -3386 0
3388 -323 0
-3389 3387 3386 0
-3389 3387 323 0
3389 -3387 0
3389 -3386 -323 0
-3390 3387 0
-3390 323 0
3390 -3387 -323 0
-3391 316 0
3391 -316 0
-3392 3391 320 0
3392 -3391 0
3392 -320 0
-3393 3391 0
-3393 320 0
3393 -3391 -320 0
-3394 3392 324 0
3394 -3392 0
3394 -324 0
-3395 3393 3392 0
-3395 3393 324 0
3395 -3393 0
3395 -3392 -324 0
-3396 3393 0
-3396 324 0
3396 -3393 -324 0
-3394 3388 0
3394 -3388 0
-3395 3389 0
3395 -3389 0
-3396 3390 0
3396 -3390 0
-3397 327 0
3397 -327 0
-3398 3397 331 0
3398 -3397 0
3398 -331 0
-3399 3397 0
-3399 331 0
3399 -3397 -331 0
-3400 3398 335 0
3400 -3398 0
3400 -335 0
-3401 3399 3398 0
-3401 3399 335 0
3401 -3399 0
3401 -3398 -335 0
-3402 3399 0
-3402 335 0
3402 -3399 -335 0
-3403 328 0
3403 -328 0
-3404 3403 332 0
3404 -3403 0
3404 -332 0
-3405 3403 0
-3405 332 0
3405 -3403 -332 0
-3406 3404 336 0
3406 -3404 0
3406 -336 0
-3407 3405 3404 0
-3407 3405 336 0
3407 -3405 0
3407 -3404 -336 0
-3408 3405 0
-3408 336 0
3408 -3405 -336 0
-3406 3400 0
3406 -3400 0
-3407 3401 0
3407 -3401 0
-3408 3402 0
3408 -3402 0
-3409 339 0
3409 -339 0
-3410 3409 343 0
3410 -3409 0
3410 -343 0
-3411 3409 0
-3411 343 0
3411 -3409 -343 0
-3412 3410 347 0
3412 -3410 0
3412 -347 0
-3413 3411 3410 0
-3413 3411 347 0
3413 -3411 0
3413 -3410 -347 0
-3414 3411 0
-3414 347 0
3414 -3411 -347 0
-3415 340 0
3415 -340 0
-3416 3415 344 0
3416 -3415 0
3416 -344 0
-3417 3415 0
-3417 344 0
3417 -3415 -344 0
-3418 3416 348 0
3418 -3416 0
3418 -348 0
-3419 3417 3416 0
-3419 3417 348 0
3419 -3417 0
3419 -3416 -348 0
-3420 3417 0
-3420 348 0
3420 -3417 -348 0
-3418 3412 0
3418 -3412 0
-3419 3413 0
3419 -3413 0
-3420 3414 0
3420 -3414 0
-3421 351 0
3421 -351 0
-3422 3421 355 0
3422 -3421 0
3422 -355 0
-3423 3421 0
-3423 355 0
3423 -3421 -355 0
-3424 3422 359 0
3424 -3422 0
3424 -359 0
-3425 3423 3422 0
-3425 3423 359 0
3425 -3423 0
3425 -3422 -359 0
-3426 3423 0
-3426 359 0
3426 -3423 -359 0
-3427 352 0
3427 -352 0
-3428 3427 356 0
3428 -3427 0
3428 -356 0
-3429 3427 0
-3429 356 0
3429 -3427 -356 0
-3430 3428 360 0
3430 -3428 0
3430 -360 0
-3431 3429 3428 0
-3431 3429 360 0
3431 -3429 0
3431 -3428 -360 0
-3432 3429 0
-3432 360 0
3432 -3429 -360 0
-3430 3424 0
3430 -3424 0
-3431 3425 0
3431 -3425 0
-3432 3426 0
3432 -3426 0
-3433 363 0
3433 -363 0
-3434 3433 367 0
3434 -3433 0
3434 -367 0
-3435 3433 0
-3435 367 0
3435 -3433 -367 0
-3436 3434 371 0
3436 -3434 0
3436 -371 0
-3437 3435 3434 0
-3437 3435 371 0
3437 -3435 0
3437 -3434 -371 0
-3438 3435 0
-3438 371 0
3438 -3435 -371 0
-3439 364 0
3439 -364 0
-3440 3439 368 0
3440 -3439 0
3440 -368 0
-3441 3439 0
-3441 368 0
3441 -3439 -368 0
-3442 3440 372 0
3442 -3440 0
3442 -372 0
-3443 3441 3440 0
-3443 3441 372 0
3443 -3441 0
3443 -3440 -372 0
-3444 3441 0
-3444 372 0
3444 -3441 -372 0
-3442 3436 0
3442 -3436 0
-3443 3437 0
3443 -3437 0
-3444 3438 0
3444 -3438 0
-3445 375 0
3445 -375 0
-3446 3445 379 0
3446 -3445 0
3446 -379 0
-3447 3445 0
-3447 379 0
3447 -3445 -379 0
-3448 3446 383 0
3448 -3446 0
3448 -383 0
-3449 3447 3446 0
-3449 3447 383 0
3449 -3447 0
3449 -3446 -383 0
-3450 3447 0
-3450 383 0
3450 -3447 -383 0
-3451 376 0
3451 -376 0
-3452 3451 380 0
3452 -3451 0
3452 -380 0
-3453 3451 0
-3453 380 0
3453 -3451 -380 0
-3454 3452 384 0
3454 -3452 0
3454 -384 0
-3455 3453 3452 0
-3455 3453 384 0
3455 -3453 0
3455 -3452 -384 0
-3456 3453 0
-3456 384 0
3456 -3453 -384 0
-3454 3448 0
3454 -3448 0
-3455 3449 0
3455 -3449 0
-3456 3450 0
3456 -3450 0
-3457 387 0
3457 -387 0
-3458 3457 391 0
3458 -3457 0
3458 -391 0
-3459 3457 0
-3459 391 0
3459 -3457 -391 0
-3460 3458 395 0
3460 -3458 0
3460 -395 0
-3461 3459 3458 0
-3461 3459 395 0
3461 -3459 0
3461 -3458 -395 0
-3462 3459 0
-3462 395 0
3462 -3459 -395 0
-3463 388 0
3463 -388 0
-3464 3463 392 0
3464 -3463 0
3464 -392 0
-3465 3463 0
-3465 392 0
3465 -3463 -392 0
-3466 3464 396 0
3466 -3464 0
3466 -396 0
-3467 3465 3464 0
-3467 3465 396 0
3467 -3465 0
3467 -3464 -396 0
-3468 3465 0
-3468 396 0
3468 -3465 -396 0
-3466 3460 0
3466 -3460 0
-3467 3461 0
3467 -3461 0
-3468 3462 0
3468 -3462 0
-3469 399 0
3469 -399 0
-3470 3469 403 0
3470 -3469 0
3470 -403 0
-3471 3469 0
-3471 403 0
3471 -3469 -403 0
-3472 3470 407 0
3472 -3470 0
3472 -407 0
-3473 3471 3470 0
-3473 3471 407 0
3473 -3471 0
3473 -3470 -407 0
-3474 3471 0
-3474 407 0
3474 -3471 -407 0
-3475 400 0
3475 -400 0
-3476 3475 404 0
3476 -3475 0
3476 -404 0
-3477 3475 0
-3477 404 0
3477 -3475 -404 0
-3478 3476 408 0
3478 -3476 0
3478 -408 0
-3479 3477 3476 0
-3479 3477 408 0
3479 -3477 0
3479 -3476 -408 0
-3480 3477 0
-3480 408 0
3480 -3477 -408 0
-3478 3472 0
3478 -3472 0
-3479 3473 0
3479 -3473 0
-3480 3474 0
3480 -3474 0
-3481 411 0
3481 -411 0
-3482 3481 415 0
3482 -3481 0
3482 -415 0
-3483 3481 0
-3483 415 0
3483 -3481 -415 0
-3484 3482 419 0
3484 -3482 0
3484 -419 0
-3485 3483 3482 0
-3485 3483 419 0
3485 -3483 0
3485 -3482 -419 0
-3486 3483 0
-3486 419 0
3486 -3483 -419 0
-3487 412 0
3487 -412 0
-3488 3487 416 0
3488 -3487 0
3488 -416 0
-3489 3487 0
-3489 416 0
3489 -3487 -416 0
-3490 3488 420 0
3490 -3488 0
3490 -420 0
-3491 3489 3488 0
-3491 3489 420 0
3491 -3489 0
3491 -3488 -420 0
-3492 3489 0
-3492 420 0
3492 -3489 -420 0
-3490 3484 0
3490 -3484 0
-3491 3485 0
3491 -3485 0
-3492 3486 0
3492 -3486 0
-3493 423 0
3493 -423 0
-3494 3493 427 0
3494 -3493 0
3494 -427 0
-3495 3493 0
-3495 427 0
3495 -3493 -427 0
-3496 3494 431 0
3496 -3494 0
3496 -431 0
-3497 3495 3494 0
-3497 3495 431 0
3497 -3495 0
3497 -3494 -431 0
-3498 3495 0
-3498 431 0
3498 -3495 -431 0
-3499 424 0
3499 -424 0
-3500 3499 428 0
3500 -3499 0
3500 -428 0
-3501 3499 0
-3501 428 0
3501 -3499 -428 0
-3502 3500 432 0
3502 -3500 0
3502 -432 0
-3503 3501 3500 0
-3503 3501 432 0
3503 -3501 0
3503 -3500 -432 0
-3504 3501 0
-3504 432 0
3504 -3501 -432 0
-3502 3496 0
3502 -3496 0
-3503 3497 0
3503 -3497 0
-3504 3498 0
3504 -3498 0
-3505 435 0
3505 -435 0
-3506 3505 439 0
3506 -3505 0
3506 -439 0
-3507 3505 0
-3507 439 0
3507 -3505 -439 0
-3508 3506 443 0
3508 -3506 0
3508 -443 0
-3509 3507 3506 0
-3509 3507 443 0
3509 -3507 0
3509 -3506 -443 0
-3510 3507 0
-3510 443 0
3510 -3507 -443 0
-3511 436 0
3511 -436 0
-3512 3511 440 0
3512 -3511 0
3512 -440 0
-3513 3511 0
-3513 440 0
3513 -3511 -440 0
-3514 3512 444 0
3514 -3512 0
3514 -444 0
-3515 3513 3512 0
-3515 3513 444 0
3515 -3513 0
3515 -3512 -444 0
-3516 3513 0
-3516 444 0
3516 -3513 -444 0
-3514 3508 0
3514 -3508 0
-3515 3509 0
3515 -3509 0
-3516 3510 0
3516 -3510 0
-3517 447 0
3517 -447 0
-3518 3517 451 0
3518 -3517 0
3518 -451 0
-3519 3517 0
-3519 451 0
3519 -3517 -451 0
-3520 3518 455 0
3520 -3518 0
3520 -455 0
-3521 3519 3518 0
-3521 3519 455 0
3521 -3519 0
3521 -3518 -455 0
-3522 3519 0
-3522 455 0
3522 -3519 -455 0
-3523 448 0
3523 -448 0
-3524 3523 452 0
3524 -3523 0
3524 -452 0
-3525 3523 0
-3525 452 0
3525 -3523 -452 0
-3526 3524 456 0
3526 -3524 0
3526 -456 0
-3527 3525 3524 0
-3527 3525 456 0
3527 -3525 0
3527 -3524 -456 0
-3528 3525 0
-3528 456 0
3528 -3525 -456 0
-3526 3520 0
3526 -3520 0
-3527 3521 0
3527 -3521 0
-3528 3522 0
3528 -3522 0
-3529 459 0
3529 -459 0
-3530 3529 463 0
3530 -3529 0
3530 -463 0
-3531 3529 0
-3531 463 0
3531 -3529 -463 0
-3532 3530 467 0
3532 -3530 0
3532 -467 0
-3533 3531 3530 0
-3533 3531 467 0
3533 -3531 0
3533 -3530 -467 0
-3534 3531 0
-3534 467 0
3534 -3531 -467 0
-3535 460 0
3535 -460 0
-3536 3535 464 0
3536 -3535 0
3536 -464 0
-3537 3535 0
-3537 464 0
3537 -3535 -464 0
-3538 3536 468 0
3538 -3536 0
3538 -468 0
-3539 3537 3536 0
-3539 3537 468 0
3539 -3537 0
3539 -3536 -468 0
-3540 3537 0
-3540 468 0
3540 -3537 -468 0
-3538 3532 0
3538 -3532 0
-3539 3533 0
3539 -3533 0
-3540 3534 0
3540 -3534 0
-3541 471 0
3541 -471 0
-3542 3541 475 0
3542 -3541 0
3542 -475 0
-3543 3541 0
-3543 475 0
3543 -3541 -475 0
-3544 3542 479 0
3544 -3542 0
3544 -479 0
-3545 3543 3542 0
-3545 3543 479 0
3545 -3543 0
3545 -3542 -479 0
-3546 3543 0
-3546 479 0
3546 -3543 -479 0
-3547 472 0
3547 -472 0
-3548 3547 476 0
3548 -3547 0
3548 -476 0
-3549 3547 0
-3549 476 0
3549 -3547 -476 0
-3550 3548 480 0
3550 -3548 0
3550 -480 0
-3551 3549 3548 0
-3551 3549 480 0
3551 -3549 0
3551 -3548 -480 0
-3552 3549 0
-3552 480 0
3552 -3549 -480 0
-3550 3544 0
3550 -3544 0
-3551 3545 0
3551 -3545 0
-3552 3546 0
3552 -3546 0
-3553 483 0
3553 -483 0
-3554 3553 487 0
3554 -3553 0
3554 -487 0
-3555 3553 0
-3555 487 0
3555 -3553 -487 0
-3556 3554 491 0
3556 -3554 0
3556 -491 0
-3557 3555 3554 0
-3557 3555 491 0
3557 -3555 0
3557 -3554 -491 0
-3558 3555 0
-3558 491 0
3558 -3555 -491 0
-3559 484 0
3559 -484 0
-3560 3559 488 0
3560 -3559 0
3560 -488 0
-3561 3559 0
-3561 488 0
3561 -3559 -488 0
-3562 3560 492 0
3562 -3560 0
3562 -492 0
-3563 3561 3560 0
-3563 3561 492 0
3563 -3561 0
3563 -3560 -492 0
-3564 3561 0
-3564 492 0
3564 -3561 -492 0
-3562 3556 0
3562 -3556 0
-3563 3557 0
3563 -3557 0
-3564 3558 0
3564 -3558 0
-3565 495 0
3565 -495 0
-3566 3565 499 0
3566 -3565 0
3566 -499 0
-3567 3565 0
-3567 499 0
3567 -3565 -499 0
-3568 3566 503 0
3568 -3566 0
3568 -503 0
-3569 3567 3566 0
-3569 3567 503 0
3569 -3567 0
3569 -3566 -503 0
-3570 3567 0
-3570 503 0
3570 -3567 -503 0
-3571 496 0
3571 -496 0
-3572 3571 500 0
3572 -3571 0
3572 -500 0
-3573 3571 0
-3573 500 0
3573 -3571 -500 0
-3574 3572 504 0
3574 -3572 0
3574 -504 0
-3575 3573 3572 0
-3575 3573 504 0
3575 -3573 0
3575 -3572 -504 0
-3576 3573 0
-3576 504 0
3576 -3573 -504 0
-3574 3568 0
3574 -3568 0
-3575 3569 0
3575 -3569 0
-3576 3570 0
3576 -3570 0
-3577 507 0
3577 -507 0
-3578 3577 511 0
3578 -3577 0
3578 -511 0
-3579 3577 0
-3579 511 0
3579 -3577 -511 0
-3580 3578 515 0
3580 -3578 0
3580 -515 0
-3581 3579 3578 0
-3581 3579 515 0
3581 -3579 0
3581 -3578 -515 0
-3582 3579 0
-3582 515 0
3582 -3579 -515 0
-3583 508 0
3583 -508 0
-3584 3583 512 0
3584 -3583 0
3584 -512 0
-3585 3583 0
-3585 512 0
3585 -3583 -512 0
-3586 3584 516 0
3586 -3584 0
3586 -516 0
-3587 3585 3584 0
-3587 3585 516 0
3587 -3585 0
3587 -3584 -516 0
-3588 3585 0
-3588 516 0
3588 -3585 -516 0
-3586 3580 0
3586 -3580 0
-3587 3581 0
3587 -3581 0
-3588 3582 0
3588 -3582 0
-3589 519 0
3589 -519 0
-3590 3589 523 0
3590 -3589 0
3590 -523 0
-3591 3589 0
-3591 523 0
3591 -3589 -523 0
-3592 3590 527 0
3592 -3590 0
3592 -527 0
-3593 3591 3590 0
-3593 3591 527 0
3593 -3591 0
3593 -3590 -527 0
-3594 3591 0
-3594 527 0
3594 -3591 -527 0
-3595 520 0
3595 -520 0
-3596 3595 524 0
3596 -3595 0
3596 -524 0
-3597 3595 0
-3597 524 0
3597 -3595 -524 0
-3598 3596 528 0
3598 -3596 0
3598 -528 0
-3599 3597 3596 0
-3599 3597 528 0
3599 -3597 0
3599 -3596 -528 0
-3600 3597 0
-3600 528 0
3600 -3597 -528 0
-3598 3592 0
3598 -3592 0
-3599 3593 0
3599 -3593 0
-3600 3594 0
3600 -3594 0
-3601 531 0
3601 -531 0
-3602 3601 535 0
3602 -3601 0
3602 -535 0
-3603 3601 0
-3603 535 0
3603 -3601 -535 0
-3604 3602 539 0
3604 -3602 0
3604 -539 0
-3605 3603 3602 0
-3605 3603 539 0
3605 -3603 0
3605 -3602 -539 0
-3606 3603 0
-3606 539 0
3606 -3603 -539 0
-3607 532 0
3607 -532 0
-3608 3607 536 0
3608 -3607 0
3608 -536 0
-3609 3607 0
-3609 536 0
3609 -3607 -536 0
-3610 3608 540 0
3610 -3608 0
3610 -540 0
-3611 3609 3608 0
-3611 3609 540 0
3611 -3609 0
3611 -3608 -540 0
-3612 3609 0
-3612 540 0
3612 -3609 -540 0
-3610 3604 0
3610 -3604 0
-3611 3605 0
3611 -3605 0
-3612 3606 0
3612 -3606 0
-3613 543 0
3613 -543 0
-3614 3613 547 0
3614 -3613 0
3614 -547 0
-3615 3613 0
-3615 547 0
3615 -3613 -547 0
-3616 3614 551 0
3616 -3614 0
3616 -551 0
-3617 3615 3614 0
-3617 3615 551 0
3617 -3615 0
3617 -3614 -551 0
-3618 3615 0
-3618 551 0
3618 -3615 -551 0
-3619 544 0
3619 -544 0
-3620 3619 548 0
3620 -3619 0
3620 -548 0
-3621 3619 0
-3621 548 0
3621 -3619 -548 0
-3622 3620 552 0
3622 -3620 0
3622 -552 0
-3623 3621 3620 0
-3623 3621 552 0
3623 -3621 0
3623 -3620 -552 0
-3624 3621 0
-3624 552 0
3624 -3621 -552 0
-3622 3616 0
3622 -3616 0
-3623 3617 0
3623 -3617 0
-3624 3618 0
3624 -3618 0
-3625 555 0
3625 -555 0
-3626 3625 559 0
3626 -3625 0
3626 -559 0
-3627 3625 0
-3627 559 0
3627 -3625 -559 0
-3628 3626 563 0
3628 -3626 0
3628 -563 0
-3629 3627 3626 0
-3629 3627 563 0
3629 -3627 0
3629 -3626 -563 0
-3630 3627 0
-3630 563 0
3630 -3627 -563 0
-3631 556 0
3631 -556 0
-3632 3631 560 0
3632 -3631 0
3632 -560 0
-3633 3631 0
-3633 560 0
3633 -3631 -560 0
-3634 3632 564 0
3634 -3632 0
3634 -564 0
-3635 3633 3632 0
-3635 3633 564 0
3635 -3633 0
3635 -3632 -564 0
-3636 3633 0
-3636 564 0
3636 -3633 -564 0
-3634 3628 0
3634 -3628 0
-3635 3629 0
3635 -3629 0
-3636 3630 0
3636 -3630 0
-3637 567 0
3637 -567 0
-3638 3637 571 0
3638 -3637 0
3638 -571 0
-3639 3637 0
-3639 571 0
3639 -3637 -571 0
-3640 3638 575 0
3640 -3638 0
3640 -575 0
-3641 3639 3638 0
-3641 3639 575 0
3641 -3639 0
3641 -3638 -575 0
-3642 3639 0
-3642 575 0
3642 -3639 -575 0
-3643 568 0
3643 -568 0
-3644 3643 572 0
3644 -3643 0
3644 -572 0
-3645 3643 0
-3645 572 0
3645 -3643 -572 0
-3646 3644 576 0
3646 -3644 0
3646 -576 0
-3647 3645 3644 0
-3647 3645 576 0
3647 -3645 0
3647 -3644 -576 0
-3648 3645 0
-3648 576 0
3648 -3645 -576 0
-3646 3640 0
3646 -3640 0
-3647 3641 0
3647 -3641 0
-3648 3642 0
3648 -3642 0
-3649 579 0
3649 -579 0
-3650 3649 583 0
3650 -3649 0
3650 -583 0
-3651 3649 0
-3651 583 0
3651 -3649 -583 0
-3652 3650 587 0
3652 -3650 0
3652 -587 0
-3653 3651 3650 0
-3653 3651 587 0
3653 -3651 0
3653 -3650 -587 0
-3654 3651 0
-3654 587 0
3654 -3651 -587 0
-3655 580 0
3655 -580 0
-3656 3655 584 0
3656 -3655 0
3656 -584 0
-3657 3655 0
-3657 584 0
3657 -3655 -584 0
-3658 3656 588 0
3658 -3656 0
3658 -588 0
-3659 3657 3656 0
-3659 3657 588 0
3659 -3657 0
3659 -3656 -588 0
-3660 3657 0
-3660 588 0
3660 -3657 -588 0
-3658 3652 0
3658 -3652 0
-3659 3653 0
3659 -3653 0
-3660 3654 0
3660 -3654 0
-3661 591 0
3661 -591 0
-3662 3661 595 0
3662 -3661 0
3662 -595 0
-3663 3661 0
-3663 595 0
3663 -3661 -595 0
-3664 3662 599 0
3664 -3662 0
3664 -599 0
-3665 3663 3662 0
-3665 3663 599 0
3665 -3663 0
3665 -3662 -599 0
-3666 3663 0
-3666 599 0
3666 -3663 -599 0
-3667 592 0
3667 -592 0
-3668 3667 596 0
3668 -3667 0
3668 -596 0
-3669 3667 0
-3669 596 0
3669 -3667 -596 0
-3670 3668 600 0
3670 -3668 0
3670 -600 0
-3671 3669 3668 0
-3671 3669 600 0
3671 -3669 0
3671 -3668 -600 0
-3672 3669 0
-3672 600 0
3672 -3669 -600 0
-3670 3664 0
3670 -3664 0
-3671 3665 0
3671 -3665 0
-3672 3666 0
3672 -3666 0
-3673 603 0
3673 -603 0
-3674 3673 607 0
3674 -3673 0
3674 -607 0
-3675 3673 0
-3675 607 0
3675 -3673 -607 0
-3676 3674 611 0
3676 -3674 0
3676 -611 0
-3677 3675 3674 0
-3677 3675 611 0
3677 -3675 0
3677 -3674 -611 0
-3678 3675 0
-3678 611 0
3678 -3675 -611 0
-3679 604 0
3679 -604 0
-3680 3679 608 0
3680 -3679 0
3680 -608 0
-3681 3679 0
-3681 608 0
3681 -3679 -608 0
-3682 3680 612 0
3682 -3680 0
3682 -612 0
-3683 3681 3680 0
-3683 3681 612 0
3683 -3681 0
3683 -3680 -612 0
-3684 3681 0
-3684 612 0
3684 -3681 -612 0
-3682 3676 0
3682 -3676 0
-3683 3677 0
3683 -3677 0
-3684 3678 0
3684 -3678 0
-3685 615 0
3685 -615 0
-3686 3685 619 0
3686 -3685 0
3686 -619 0
-3687 3685 0
-3687 619 0
3687 -3685 -619 0
-3688 3686 623 0
3688 -3686 0
3688 -623 0
-3689 3687 3686 0
-3689 3687 623 0
3689 -3687 0
3689 -3686 -623 0
-3690 3687 0
-3690 623 0
3690 -3687 -623 0
-3691 616 0
3691 -616 0
-3692 3691 620 0
3692 -3691 0
3692 -620 0
-3693 3691 0
-3693 620 0
3693 -3691 -620 0
-3694 3692 624 0
3694 -3692 0
3694 -624 0
-3695 3693 3692 0
-3695 3693 624 0
3695 -3693 0
3695 -3692 -624 0
-3696 3693 0
-3696 624 0
3696 -3693 -624 0
-3694 3688 0
3694 -3688 0
-3695 3689 0
3695 -3689 0
-3696 3690 0
3696 -3690 0
-3697 627 0
3697 -627 0
-3698 3697 631 0
3698 -3697 0
3698 -631 0
-3699 3697 0
-3699 631 0
3699 -3697 -631 0
-3700 3698 635 0
3700 -3698 0
3700 -635 0
-3701 3699 3698 0
-3701 3699 635 0
3701 -3699 0
3701 -3698 -635 0
-3702 3699 0
-3702 635 0
3702 -3699 -635 0
-3703 628 0
3703 -628 0
-3704 3703 632 0
3704 -3703 0
3704 -632 0
-3705 3703 0
-3705 632 0
3705 -3703 -632 0
-3706 3704 636 0
3706 -3704 0
3706 -636 0
-3707 3705 3704 0
-3707 3705 636 0
3707 -3705 0
3707 -3704 -636 0
-3708 3705 0
-3708 636 0
3708 -3705 -636 0
-3706 3700 0
3706 -3700 0
-3707 3701 0
3707 -3701 0
-3708 3702 0
3708 -3702 0
-3709 639 0
3709 -639 0
-3710 3709 643 0
3710 -3709 0
3710 -643 0
-3711 3709 0
-3711 643 0
3711 -3709 -643 0
-3712 3710 647 0
3712 -3710 0
3712 -647 0
-3713 3711 3710 0
-3713 3711 647 0
3713 -3711 0
3713 -3710 -647 0
-3714 3711 0
-3714 647 0
3714 -3711 -647 0
-3715 640 0
3715 -640 0
-3716 3715 644 0
3716 -3715 0
3716 -644 0
-3717 3715 0
-3717 644 0
3717 -3715 -644 0
-3718 3716 648 0
3718 -3716 0
3718 -648 0
-3719 3717 3716 0
-3719 3717 648 0
3719 -3717 0
3719 -3716 -648 0
-3720 3717 0
-3720 648 0
3720 -3717 -648 0
-3718 3712 0
3718 -3712 0
-3719 3713 0
3719 -3713 0
-3720 3714 0
3720 -3714 0
-3721 651 0
3721 -651 0
-3722 3721 655 0
3722 -3721 0
3722 -655 0
-3723 3721 0
-3723 655 0
3723 -3721 -655 0
-3724 3722 659 0
3724 -3722 0
3724 -659 0
-3725 3723 3722 0
-3725 3723 659 0
3725 -3723 0
3725 -3722 -659 0
-3726 3723 0
-3726 659 0
3726 -3723 -659 0
-3727 652 0
3727 -652 0
-3728 3727 656 0
3728 -3727 0
3728 -656 0
-3729 3727 0
-3729 656 0
3729 -3727 -656 0
-3730 3728 660 0
3730 -3728 0
3730 -660 0
-3731 3729 3728 0
-3731 3729 660 0
3731 -3729 0
3731 -3728 -660 0
-3732 3729 0
-3732 660 0
3732 -3729 -660 0
-3730 3724 0
3730 -3724 0
-3731 3725 0
3731 -3725 0
-3732 3726 0
3732 -3726 0
-3733 663 0
3733 -663 0
-3734 3733 667 0
3734 -3733 0
3734 -667 0
-3735 3733 0
-3735 667 0
3735 -3733 -667 0
-3736 3734 671 0
3736 -3734 0
3736 -671 0
-3737 3735 3734 0
-3737 3735 671 0
3737 -3735 0
3737 -3734 -671 0
-3738 3735 0
-3738 671 0
3738 -3735 -671 0
-3739 664 0
3739 -664 0
-3740 3739 668 0
3740 -3739 0
3740 -668 0
-3741 3739 0
-3741 668 0
3741 -3739 -668 0
-3742 3740 672 0
3742 -3740 0
3742 -672 0
-3743 3741 3740 0
-3743 3741 672 0
3743 -3741 0
3743 -3740 -672 0
-3744 3741 0
-3744 672 0
3744 -3741 -672 0
-3742 3736 0
3742 -3736 0
-3743 3737 0
3743 -3737 0
-3744 3738 0
3744 -3738 0
-3745 675 0
3745 -675 0
-3746 3745 679 0
3746 -3745 0
3746 -679 0
-3747 3745 0
-3747 679 0
3747 -3745 -679 0
-3748 3746 683 0
3748 -3746 0
3748 -683 0
-3749 3747 3746 0
-3749 3747 683 0
3749 -3747 0
3749 -3746 -683 0
-3750 3747 0
-3750 683 0
3750 -3747 -683 0
-3751 676 0
3751 -676 0
-3752 3751 680 0
3752 -3751 0
3752 -680 0
-3753 3751 0
-3753 680 0
3753 -3751 -680 0
-3754 3752 684 0
3754 -3752 0
3754 -684 0
-3755 3753 3752 0
-3755 3753 684 0
3755 -3753 0
3755 -3752 -684 0
-3756 3753 0
-3756 684 0
3756 -3753 -684 0
-3754 3748 0
3754 -3748 0
-3755 3749 0
3755 -3749 0
-3756 3750 0
3756 -3750 0
-3757 687 0
3757 -687 0
-3758 3757 691 0
3758 -3757 0
3758 -691 0
-3759 3757 0
-3759 691 0
3759 -3757 -691 0
-3760 3758 695 0
3760 -3758 0
3760 -695 0
-3761 3759 3758 0
-3761 3759 695 0
3761 -3759 0
3761 -3758 -695 0
-3762 3759 0
-3762 695 0
3762 -3759 -695 0
-3763 688 0
3763 -688 0
-3764 3763 692 0
3764 -3763 0
3764 -692 0
-3765 3763 0
-3765 692 0
3765 -3763 -692 0
-3766 3764 696 0
3766 -3764 0
3766 -696 0
-3767 3765 3764 0
-3767 3765 696 0
3767 -3765 0
3767 -3764 -696 0
-3768 3765 0
-3768 696 0
3768 -3765 -696 0
-3766 3760 0
3766 -3760 0
-3767 3761 0
3767 -3761 0
-3768 3762 0
3768 -3762 0
-3769 699 0
3769 -699 0
-3770 3769 703 0
3770 -3769 0
3770 -703 0
-3771 3769 0
-3771 703 0
3771 -3769 -703 0
-3772 3770 707 0
3772 -3770 0
3772 -707 0
-3773 3771 3770 0
-3773 3771 707 0
3773 -3771 0
3773 -3770 -707 0
-3774 3771 0
-3774 707 0
3774 -3771 -707 0
-3775 700 0
3775 -700 0
-3776 3775 704 0
3776 -3775 0
3776 -704 0
-3777 3775 0
-3777 704 0
3777 -3775 -704 0
-3778 3776 708 0
3778 -3776 0
3778 -708 0
-3779 3777 3776 0
-3779 3777 708 0
3779 -3777 0
3779 -3776 -708 0
-3780 3777 0
-3780 708 0
3780 -3777 -708 0
-3778 3772 0
3778 -3772 0
-3779 3773 0
3779 -3773 0
-3780 3774 0
3780 -3774 0
-3781 711 0
3781 -711 0
-3782 3781 715 0
3782 -3781 0
3782 -715 0
-3783 3781 0
-3783 715 0
3783 -3781 -715 0
-3784 3782 719 0
3784 -3782 0
3784 -719 0
-3785 3783 3782 0
-3785 3783 719 0
3785 -3783 0
3785 -3782 -719 0
-3786 3783 0
-3786 719 0
3786 -3783 -719 0
-3787 712 0
3787 -712 0
-3788 3787 716 0
3788 -3787 0
3788 -716 0
-3789 3787 0
-3789 716 0
3789 -3787 -716 0
-3790 3788 720 0
3790 -3788 0
3790 -720 0
-3791 3789 3788 0
-3791 3789 720 0
3791 -3789 0
3791 -3788 -720 0
-3792 3789 0
-3792 720 0
3792 -3789 -720 0
-3790 3784 0
3790 -3784 0
-3791 3785 0
3791 -3785 0
-3792 3786 0
3792 -3786 0
-3793 723 0
3793 -723 0
-3794 3793 727 0
3794 -3793 0
3794 -727 0
-3795 3793 0
-3795 727 0
3795 -3793 -727 0
-3796 3794 731 0
3796 -3794 0
3796 -731 0
-3797 3795 3794 0
-3797 3795 731 0
3797 -3795 0
3797 -3794 -731 0
-3798 3795 0
-3798 731 0
3798 -3795 -731 0
-3799 724 0
3799 -724 0
-3800 3799 728 0
3800 -3799 0
3800 -728 0
-3801 3799 0
-3801 728 0
3801 -3799 -728 0
-3802 3800 732 0
3802 -3800 0
3802 -732 0
-3803 3801 3800 0
-3803 3801 732 0
3803 -3801 0
3803 -3800 -732 0
-3804 3801 0
-3804 732 0
3804 -3801 -732 0
-3802 3796 0
3802 -3796 0
-3803 3797 0
3803 -3797 0
-3804 3798 0
3804 -3798 0
-3805 735 0
3805 -735 0
-3806 3805 739 0
3806 -3805 0
3806 -739 0
-3807 3805 0
-3807 739 0
3807 -3805 -739 0
-3808 3806 743 0
3808 -3806 0
3808 -743 0
-3809 3807 3806 0
-3809 3807 743 0
3809 -3807 0
3809 -3806 -743 0
-3810 3807 0
-3810 743 0
3810 -3807 -743 0
-3811 736 0
3811 -736 0
-3812 3811 740 0
3812 -3811 0
3812 -740 0
-3813 3811 0
-3813 740 0
3813 -3811 -740 0
-3814 3812 744 0
3814 -3812 0
3814 -744 0
-3815 3813 3812 0
-3815 3813 744 0
3815 -3813 0
3815 -3812 -744 0
-3816 3813 0
-3816 744 0
3816 -3813 -744 0
-3814 3808 0
3814 -3808 0
-3815 3809 0
3815 -3809 0
-3816 3810 0
3816 -3810 0
-3817 747 0
3817 -747 0
-3818 3817 751 0
3818 -3817 0
3818 -751 0
-3819 3817 0
-3819 751 0
3819 -3817 -751 0
-3820 3818 755 0
3820 -3818 0
3820 -755 0
-3821 3819 3818 0
-3821 3819 755 0
3821 -3819 0
3821 -3818 -755 0
-3822 3819 0
-3822 755 0
3822 -3819 -755 0
-3823 748 0
3823 -748 0
-3824 3823 752 0
3824 -3823 0
3824 -752 0
-3825 3823 0
-3825 752 0
3825 -3823 -752 0
-3826 3824 756 0
3826 -3824 0
3826 -756 0
-3827 3825 3824 0
-3827 3825 756 0
3827 -3825 0
3827 -3824 -756 0
-3828 3825 0
-3828 756 0
3828 -3825 -756 0
-3826 3820 0
3826 -3820 0
-3827 3821 0
3827 -3821 0
-3828 3822 0
3828 -3822 0
-3829 759 0
3829 -759 0
-3830 3829 763 0
3830 -3829 0
3830 -763 0
-3831 3829 0
-3831 763 0
3831 -3829 -763 0
-3832 3830 767 0
3832 -3830 0
3832 -767 0
-3833 3831 3830 0
-3833 3831 767 0
3833 -3831 0
3833 -3830 -767 0
-3834 3831 0
-3834 767 0
3834 -3831 -767 0
-3835 760 0
3835 -760 0
-3836 3835 764 0
3836 -3835 0
3836 -764 0
-3837 3835 0
-3837 764 0
3837 -3835 -764 0
-3838 3836 768 0
3838 -3836 0
3838 -768 0
-3839 3837 3836 0
-3839 3837 768 0
3839 -3837 0
3839 -3836 -768 0
-3840 3837 0
-3840 768 0
3840 -3837 -768 0
-3838 3832 0
3838 -3832 0
-3839 3833 0
3839 -3833 0
-3840 3834 0
3840 -3834 0
-3841 771 0
3841 -771 0
-3842 3841 775 0
3842 -3841 0
3842 -775 0
-3843 3841 0
-3843 775 0
3843 -3841 -775 0
-3844 3842 779 0
3844 -3842 0
3844 -779 0
-3845 3843 3842 0
-3845 3843 779 0
3845 -3843 0
3845 -3842 -779 0
-3846 3843 0
-3846 779 0
3846 -3843 -779 0
-3847 772 0
3847 -772 0
-3848 3847 776 0
3848 -3847 0
3848 -776 0
-3849 3847 0
-3849 776 0
3849 -3847 -776 0
-3850 3848 780 0
3850 -3848 0
3850 -780 0
-3851 3849 3848 0
-3851 3849 780 0
3851 -3849 0
3851 -3848 -780 0
-3852 3849 0
-3852 780 0
3852 -3849 -780 0
-3850 3844 0
3850 -3844 0
-3851 3845 0
3851 -3845 0
-3852 3846 0
3852 -3846 0
-3853 783 0
3853 -783 0
-3854 3853 787 0
3854 -3853 0
3854 -787 0
-3855 3853 0
-3855 787 0
3855 -3853 -787 0
-3856 3854 791 0
3856 -3854 0
3856 -791 0
-3857 3855 3854 0
-3857 3855 791 0
3857 -3855 0
3857 -3854 -791 0
-3858 3855 0
-3858 791 0
3858 -3855 -791 0
-3859 784 0
3859 -784 0
-3860 3859 788 0
3860 -3859 0
3860 -788 0
-3861 3859 0
-3861 788 0
3861 -3859 -788 0
-3862 3860 792 0
3862 -3860 0
3862 -792 0
-3863 3861 3860 0
-3863 3861 792 0
3863 -3861 0
3863 -3860 -792 0
-3864 3861 0
-3864 792 0
3864 -3861 -792 0
-3862 3856 0
3862 -3856 0
-3863 3857 0
3863 -3857 0
-3864 3858 0
3864 -3858 0
-3865 795 0
3865 -795 0
-3866 3865 799 0
3866 -3865 0
3866 -799 0
-3867 3865 0
-3867 799 0
3867 -3865 -799 0
-3868 3866 803 0
3868 -3866 0
3868 -803 0
-3869 3867 3866 0
-3869 3867 803 0
3869 -3867 0
3869 -3866 -803 0
-3870 3867 0
-3870 803 0
3870 -3867 -803 0
-3871 796 0
3871 -796 0
-3872 3871 800 0
3872 -3871 0
3872 -800 0
-3873 3871 0
-3873 800 0
3873 -3871 -800 0
-3874 3872 804 0
3874 -3872 0
3874 -804 0
-3875 3873 3872 0
-3875 3873 804 0
3875 -3873 0
3875 -3872 -804 0
-3876 3873 0
-3876 804 0
3876 -3873 -804 0
-3874 3868 0
3874 -3868 0
-3875 3869 0
3875 -3869 0
-3876 3870 0
3876 -3870 0
-3877 807 0
3877 -807 0
-3878 3877 811 0
3878 -3877 0
3878 -811 0
-3879 3877 0
-3879 811 0
3879 -3877 -811 0
-3880 3878 815 0
3880 -3878 0
3880 -815 0
-3881 3879 3878 0
-3881 3879 815 0
3881 -3879 0
3881 -3878 -815 0
-3882 3879 0
-3882 815 0
3882 -3879 -815 0
-3883 808 0
3883 -808 0
-3884 3883 812 0
3884 -3883 0
3884 -812 0
-3885 3883 0
-3885 812 0
3885 -3883 -812 0
-3886 3884 816 0
3886 -3884 0
3886 -816 0
-3887 3885 3884 0
-3887 3885 816 0
3887 -3885 0
3887 -3884 -816 0
-3888 3885 0
-3888 816 0
3888 -3885 -816 0
-3886 3880 0
3886 -3880 0
-3887 3881 0
3887 -3881 0
-3888 3882 0
3888 -3882 0
-3889 819 0
3889 -819 0
-3890 3889 823 0
3890 -3889 0
3890 -823 0
-3891 3889 0
-3891 823 0
3891 -3889 -823 0
-3892 3890 827 0
3892 -3890 0
3892 -827 0
-3893 3891 3890 0
-3893 3891 827 0
3893 -3891 0
3893 -3890 -827 0
-3894 3891 0
-3894 827 0
3894 -3891 -827 0
-3895 820 0
3895 -820 0
-3896 3895 824 0
3896 -3895 0
3896 -824 0
-3897 3895 0
-3897 824 0
3897 -3895 -824 0
-3898 3896 828 0
3898 -3896 0
3898 -828 0
-3899 3897 3896 0
-3899 3897 828 0
3899 -3897 0
3899 -3896 -828 0
-3900 3897 0
-3900 828 0
3900 -3897 -828 0
-3898 3892 0
3898 -3892 0
-3899 3893 0
3899 -3893 0
-3900 3894 0
3900 -3894 0
-3901 831 0
3901 -831 0
-3902 3901 835 0
3902 -3901 0
3902 -835 0
-3903 3901 0
-3903 835 0
3903 -3901 -835 0
-3904 3902 839 0
3904 -3902 0
3904 -839 0
-3905 3903 3902 0
-3905 3903 839 0
3905 -3903 0
3905 -3902 -839 0
-3906 3903 0
-3906 839 0
3906 -3903 -839 0
-3907 832 0
3907 -832 0
-3908 3907 836 0
3908 -3907 0
3908 -836 0
-3909 3907 0
-3909 836 0
3909 -3907 -836 0
-3910 3908 840 0
3910 -3908 0
3910 -840 0
-3911 3909 3908 0
-3911 3909 840 0
3911 -3909 0
3911 -3908 -840 0
-3912 3909 0
-3912 840 0
3912 -3909 -840 0
-3910 3904 0
3910 -3904 0
-3911 3905 0
3911 -3905 0
-3912 3906 0
3912 -3906 0
-3913 843 0
3913 -843 0
-3914 3913 847 0
3914 -3913 0
3914 -847 0
-3915 3913 0
-3915 847 0
3915 -3913 -847 0
-3916 3914 851 0
3916 -3914 0
3916 -851 0
-3917 3915 3914 0
-3917 3915 851 0
3917 -3915 0
3917 -3914 -851 0
-3918 3915 0
-3918 851 0
3918 -3915 -851 0
-3919 844 0
3919 -844 0
-3920 3919 848 0
3920 -3919 0
3920 -848 0
-3921 3919 0
-3921 848 0
3921 -3919 -848 0
-3922 3920 852 0
3922 -3920 0
3922 -852 0
-3923 3921 3920 0
-3923 3921 852 0
3923 -3921 0
3923 -3920 -852 0
-3924 3921 0
-3924 852 0
3924 -3921 -852 0
-3922 3916 0
3922 -3916 0
-3923 3917 0
3923 -3917 0
-3924 3918 0
3924 -3918 0
-3925 855 0
3925 -855 0
-3926 3925 859 0
3926 -3925 0
3926 -859 0
-3927 3925 0
-3927 859 0
3927 -3925 -859 0
-3928 3926 863 0
3928 -3926 0
3928 -863 0
-3929 3927 3926 0
-3929 3927 863 0
3929 -3927 0
3929 -3926 -863 0
-3930 3927 0
-3930 863 0
3930 -3927 -863 0
-3931 856 0
3931 -856 0
-3932 3931 860 0
3932 -3931 0
3932 -860 0
-3933 3931 0
-3933 860 0
3933 -3931 -860 0
-3934 3932 864 0
3934 -3932 0
3934 -864 0
-3935 3933 3932 0
-3935 3933 864 0
3935 -3933 0
3935 -3932 -864 0
-3936 3933 0
-3936 864 0
3936 -3933 -864 0
-3934 3928 0
3934 -3928 0
-3935 3929 0
3935 -3929 0
-3936 3930 0
3936 -3930 0
-3937 867 0
3937 -867 0
-3938 3937 871 0
3938 -3937 0
3938 -871 0
-3939 3937 0
-3939 871 0
3939 -3937 -871 0
-3940 3938 875 0
3940 -3938 0
3940 -875 0
-3941 3939 3938 0
-3941 3939 875 0
3941 -3939 0
3941 -3938 -875 0
-3942 3939 0
-3942 875 0
3942 -3939 -875 0
-3943 868 0
3943 -868 0
-3944 3943 872 0
3944 -3943 0
3944 -872 0
-3945 3943 0
-3945 872 0
3945 -3943 -872 0
-3946 3944 876 0
3946 -3944 0
3946 -876 0
-3947 3945 3944 0
-3947 3945 876 0
3947 -3945 0
3947 -3944 -876 0
-3948 3945 0
-3948 876 0
3948 -3945 -876 0
-3946 3940 0
3946 -3940 0
-3947 3941 0
3947 -3941 0
-3948 3942 0
3948 -3942 0
-3949 879 0
3949 -879 0
-3950 3949 883 0
3950 -3949 0
3950 -883 0
-3951 3949 0
-3951 883 0
3951 -3949 -883 0
-3952 3950 887 0
3952 -3950 0
3952 -887 0
-3953 3951 3950 0
-3953 3951 887 0
3953 -3951 0
3953 -3950 -887 0
-3954 3951 0
-3954 887 0
3954 -3951 -887 0
-3955 880 0
3955 -880 0
-3956 3955 884 0
3956 -3955 0
3956 -884 0
-3957 3955 0
-3957 884 0
3957 -3955 -884 0
-3958 3956 888 0
3958 -3956 0
3958 -888 0
-3959 3957 3956 0
-3959 3957 888 0
3959 -3957 0
3959 -3956 -888 0
-3960 3957 0
-3960 888 0
3960 -3957 -888 0
-3958 3952 0
3958 -3952 0
-3959 3953 0
3959 -3953 0
-3960 3954 0
3960 -3954 0
-3961 891 0
3961 -891 0
-3962 3961 895 0
3962 -3961 0
3962 -895 0
-3963 3961 0
-3963 895 0
3963 -3961 -895 0
-3964 3962 899 0
3964 -3962 0
3964 -899 0
-3965 3963 3962 0
-3965 3963 899 0
3965 -3963 0
3965 -3962 -899 0
-3966 3963 0
-3966 899 0
3966 -3963 -899 0
-3967 892 0
3967 -892 0
-3968 3967 896 0
3968 -3967 0
3968 -896 0
-3969 3967 0
-3969 896 0
3969 -3967 -896 0
-3970 3968 900 0
3970 -3968 0
3970 -900 0
-3971 3969 3968 0
-3971 3969 900 0
3971 -3969 0
3971 -3968 -900 0
-3972 3969 0
-3972 900 0
3972 -3969 -900 0
-3970 3964 0
3970 -3964 0
-3971 3965 0
3971 -3965 0
-3972 3966 0
3972 -3966 0
-3973 903 0
3973 -903 0
-3974 3973 907 0
3974 -3973 0
3974 -907 0
-3975 3973 0
-3975 907 0
3975 -3973 -907 0
-3976 3974 911 0
3976 -3974 0
3976 -911 0
-3977 3975 3974 0
-3977 3975 911 0
3977 -3975 0
3977 -3974 -911 0
-3978 3975 0
-3978 911 0
3978 -3975 -911 0
-3979 904 0
3979 -904 0
-3980 3979 908 0
3980 -3979 0
3980 -908 0
-3981 3979 0
-3981 908 0
3981 -3979 -908 0
-3982 3980 912 0
3982 -3980 0
3982 -912 0
-3983 3981 3980 0
-3983 3981 912 0
3983 -3981 0
3983 -3980 -912 0
-3984 3981 0
-3984 912 0
3984 -3981 -912 0
-3982 3976 0
3982 -3976 0
-3983 3977 0
3983 -3977 0
-3984 3978 0
3984 -3978 0
-3985 915 0
3985 -915 0
-3986 3985 919 0
3986 -3985 0
3986 -919 0
-3987 3985 0
-3987 919 0
3987 -3985 -919 0
-3988 3986 923 0
3988 -3986 0
3988 -923 0
-3989 3987 3986 0
-3989 3987 923 0
3989 -3987 0
3989 -3986 -923 0
-3990 3987 0
-3990 923 0
3990 -3987 -923 0
-3991 916 0
3991 -916 0
-3992 3991 920 0
3992 -3991 0
3992 -920 0
-3993 3991 0
-3993 920 0
3993 -3991 -920 0
-3994 3992 924 0
3994 -3992 0
3994 -924 0
-3995 3993 3992 0
-3995 3993 924 0
3995 -3993 0
3995 -3992 -924 0
-3996 3993 0
-3996 924 0
3996 -3993 -924 0
-3994 3988 0
3994 -3988 0
-3995 3989 0
3995 -3989 0
-3996 3990 0
3996 -3990 0
-3997 927 0
3997 -927 0
-3998 3997 931 0
3998 -3997 0
3998 -931 0
-3999 3997 0
-3999 931 0
3999 -3997 -931 0
-4000 3998 935 0
4000 -3998 0
4000 -935 0
-4001 3999 3998 0
-4001 3999 935 0
4001 -3999 0
4001 -3998 -935 0
-4002 3999 0
-4002 935 0
4002 -3999 -935 0
-4003 928 0
4003 -928 0
-4004 4003 932 0
4004 -4003 0
4004 -932 0
-4005 4003 0
-4005 932 0
4005 -4003 -932 0
-4006 4004 936 0
4006 -4004 0
4006 -936 0
-4007 4005 4004 0
-4007 4005 936 0
4007 -4005 0
4007 -4004 -936 0
-4008 4005 0
-4008 936 0
4008 -4005 -936 0
-4006 4000 0
4006 -4000 0
-4007 4001 0
4007 -4001 0
-4008 4002 0
4008 -4002 0
-4009 939 0
4009 -939 0
-4010 4009 943 0
4010 -4009 0
4010 -943 0
-4011 4009 0
-4011 943 0
4011 -4009 -943 0
-4012 4010 947 0
4012 -4010 0
4012 -947 0
-4013 4011 4010 0
-4013 4011 947 0
4013 -4011 0
4013 -4010 -947 0
-4014 4011 0
-4014 947 0
4014 -4011 -947 0
-4015 940 0
4015 -940 0
-4016 4015 944 0
4016 -4015 0
4016 -944 0
-4017 4015 0
-4017 944 0
4017 -4015 -944 0
-4018 4016 948 0
4018 -4016 0
4018 -948 0
-4019 4017 4016 0
-4019 4017 948 0
4019 -4017 0
4019 -4016 -948 0
-4020 4017 0
-4020 948 0
4020 -4017 -948 0
-4018 4012 0
4018 -4012 0
-4019 4013 0
4019 -4013 0
-4020 4014 0
4020 -4014 0
-4021 951 0
4021 -951 0
-4022 4021 955 0
4022 -4021 0
4022 -955 0
-4023 4021 0
-4023 955 0
4023 -4021 -955 0
-4024 4022 959 0
4024 -4022 0
4024 -959 0
-4025 4023 4022 0
-4025 4023 959 0
4025 -4023 0
4025 -4022 -959 0
-4026 4023 0
-4026 959 0
4026 -4023 -959 0
-4027 952 0
4027 -952 0
-4028 4027 956 0
4028 -4027 0
4028 -956 0
-4029 4027 0
-4029 956 0
4029 -4027 -956 0
-4030 4028 960 0
4030 -4028 0
4030 -960 0
-4031 4029 4028 0
-4031 4029 960 0
4031 -4029 0
4031 -4028 -960 0
-4032 4029 0
-4032 960 0
4032 -4029 -960 0
-4030 4024 0
4030 -4024 0
-4031 4025 0
4031 -4025 0
-4032 4026 0
4032 -4026 0
-4033 963 0
4033 -963 0
-4034 4033 967 0
4034 -4033 0
4034 -967 0
-4035 4033 0
-4035 967 0
4035 -4033 -967 0
-4036 4034 971 0
4036 -4034 0
4036 -971 0
-4037 4035 4034 0
-4037 4035 971 0
4037 -4035 0
4037 -4034 -971 0
-4038 4035 0
-4038 971 0
4038 -4035 -971 0
-4039 964 0
4039 -964 0
-4040 4039 968 0
4040 -4039 0
4040 -968 0
-4041 4039 0
-4041 968 0
4041 -4039 -968 0
-4042 4040 972 0
4042 -4040 0
4042 -972 0
-4043 4041 4040 0
-4043 4041 972 0
4043 -4041 0
4043 -4040 -972 0
-4044 4041 0
-4044 972 0
4044 -4041 -972 0
-4042 4036 0
4042 -4036 0
-4043 4037 0
4043 -4037 0
-4044 4038 0
4044 -4038 0
-4045 975 0
4045 -975 0
-4046 4045 979 0
4046 -4045 0
4046 -979 0
-4047 4045 0
-4047 979 0
4047 -4045 -979 0
-4048 4046 983 0
4048 -4046 0
4048 -983 0
-4049 4047 4046 0
-4049 4047 983 0
4049 -4047 0
4049 -4046 -983 0
-4050 4047 0
-4050 983 0
4050 -4047 -983 0
-4051 976 0
4051 -976 0
-4052 4051 980 0
4052 -4051 0
4052 -980 0
-4053 4051 0
-4053 980 0
4053 -4051 -980 0
-4054 4052 984 0
4054 -4052 0
4054 -984 0
-4055 4053 4052 0
-4055 4053 984 0
4055 -4053 0
4055 -4052 -984 0
-4056 4053 0
-4056 984 0
4056 -4053 -984 0
-4054 4048 0
4054 -4048 0
-4055 4049 0
4055 -4049 0
-4056 4050 0
4056 -4050 0
-4057 987 0
4057 -987 0
-4058 4057 991 0
4058 -4057 0
4058 -991 0
-4059 4057 0
-4059 991 0
4059 -4057 -991 0
-4060 4058 995 0
4060 -4058 0
4060 -995 0
-4061 4059 4058 0
-4061 4059 995 0
4061 -4059 0
4061 -4058 -995 0
-4062 4059 0
-4062 995 0
4062 -4059 -995 0
-4063 988 0
4063 -988 0
-4064 4063 992 0
4064 -4063 0
4064 -992 0
-4065 4063 0
-4065 992 0
4065 -4063 -992 0
-4066 4064 996 0
4066 -4064 0
4066 -996 0
-4067 4065 4064 0
-4067 4065 996 0
4067 -4065 0
4067 -4064 -996 0
-4068 4065 0
-4068 996 0
4068 -4065 -996 0
-4066 4060 0
4066 -4060 0
-4067 4061 0
4067 -4061 0
-4068 4062 0
4068 -4062 0
-4069 999 0
4069 -999 0
-4070 4069 1003 0
4070 -4069 0
4070 -1003 0
-4071 4069 0
-4071 1003 0
4071 -4069 -1003 0
-4072 4070 1007 0
4072 -4070 0
4072 -1007 0
-4073 4071 4070 0
-4073 4071 1007 0
4073 -4071 0
4073 -4070 -1007 0
-4074 4071 0
-4074 1007 0
4074 -4071 -1007 0
-4075 1000 0
4075 -1000 0
-4076 4075 1004 0
4076 -4075 0
4076 -1004 0
-4077 4075 0
-4077 1004 0
4077 -4075 -1004 0
-4078 4076 1008 0
4078 -4076 0
4078 -1008 0
-4079 4077 4076 0
-4079 4077 1008 0
4079 -4077 0
4079 -4076 -1008 0
-4080 4077 0
-4080 1008 0
4080 -4077 -1008 0
-4078 4072 0
4078 -4072 0
-4079 4073 0
4079 -4073 0
-4080 4074 0
4080 -4074 0
-4081 1011 0
4081 -1011 0
-4082 4081 1015 0
4082 -4081 0
4082 -1015 0
-4083 4081 0
-4083 1015 0
4083 -4081 -1015 0
-4084 4082 1019 0
4084 -4082 0
4084 -1019 0
-4085 4083 4082 0
-4085 4083 1019 0
4085 -4083 0
4085 -4082 -1019 0
-4086 4083 0
-4086 1019 0
4086 -4083 -1019 0
-4087 1012 0
4087 -1012 0
-4088 4087 1016 0
4088 -4087 0
4088 -1016 0
-4089 4087 0
-4089 1016 0
4089 -4087 -1016 0
-4090 4088 1020 0
4090 -4088 0
4090 -1020 0
-4091 4089 4088 0
-4091 4089 1020 0
4091 -4089 0
4091 -4088 -1020 0
-4092 4089 0
-4092 1020 0
4092 -4089 -1020 0
-4090 4084 0
4090 -4084 0
-4091 4085 0
4091 -4085 0
-4092 4086 0
4092 -4086 0
-4093 1023 0
4093 -1023 0
-4094 4093 1027 0
4094 -4093 0
4094 -1027 0
-4095 4093 0
-4095 1027 0
4095 -4093 -1027 0
-4096 4094 1031 0
4096 -4094 0
4096 -1031 0
-4097 4095 4094 0
-4097 4095 1031 0
4097 -4095 0
4097 -4094 -1031 0
-4098 4095 0
-4098 1031 0
4098 -4095 -1031 0
-4099 1024 0
4099 -1024 0
-4100 4099 1028 0
4100 -4099 0
4100 -1028 0
-4101 4099 0
-4101 1028 0
4101 -4099 -1028 0
-4102 4100 1032 0
4102 -4100 0
4102 -1032 0
-4103 4101 4100 0
-4103 4101 1032 0
4103 -4101 0
4103 -4100 -1032 0
-4104 4101 0
-4104 1032 0
4104 -4101 -1032 0
-4102 4096 0
4102 -4096 0
-4103 4097 0
4103 -4097 0
-4104 4098 0
4104 -4098 0
-4105 1035 0
4105 -1035 0
-4106 4105 1039 0
4106 -4105 0
4106 -1039 0
-4107 4105 0
-4107 1039 0
4107 -4105 -1039 0
-4108 4106 1043 0
4108 -4106 0
4108 -1043 0
-4109 4107 4106 0
-4109 4107 1043 0
4109 -4107 0
4109 -4106 -1043 0
-4110 4107 0
-4110 1043 0
4110 -4107 -1043 0
-4111 1036 0
4111 -1036 0
-4112 4111 1040 0
4112 -4111 0
4112 -1040 0
-4113 4111 0
-4113 1040 0
4113 -4111 -1040 0
-4114 4112 1044 0
4114 -4112 0
4114 -1044 0
-4115 4113 4112 0
-4115 4113 1044 0
4115 -4113 0
4115 -4112 -1044 0
-4116 4113 0
-4116 1044 0
4116 -4113 -1044 0
-4114 4108 0
4114 -4108 0
-4115 4109 0
4115 -4109 0
-4116 4110 0
4116 -4110 0
-4117 1047 0
4117 -1047 0
-4118 4117 1051 0
4118 -4117 0
4118 -1051 0
-4119 4117 0
-4119 1051 0
4119 -4117 -1051 0
-4120 4118 1055 0
4120 -4118 0
4120 -1055 0
-4121 4119 4118 0
-4121 4119 1055 0
4121 -4119 0
4121 -4118 -1055 0
-4122 4119 0
-4122 1055 0
4122 -4119 -1055 0
-4123 1048 0
4123 -1048 0
-4124 4123 1052 0
4124 -4123 0
4124 -1052 0
-4125 4123 0
-4125 1052 0
4125 -4123 -1052 0
-4126 4124 1056 0
4126 -4124 0
4126 -1056 0
-4127 4125 4124 0
-4127 4125 1056 0
4127 -4125 0
4127 -4124 -1056 0
-4128 4125 0
-4128 1056 0
4128 -4125 -1056 0
-4126 4120 0
4126 -4120 0
-4127 4121 0
4127 -4121 0
-4128 4122 0
4128 -4122 0
-4129 1059 0
4129 -1059 0
-4130 4129 1063 0
4130 -4129 0
4130 -1063 0
-4131 4129 0
-4131 1063 0
4131 -4129 -1063 0
-4132 4130 1067 0
4132 -4130 0
4132 -1067 0
-4133 4131 4130 0
-4133 4131 1067 0
4133 -4131 0
4133 -4130 -1067 0
-4134 4131 0
-4134 1067 0
4134 -4131 -1067 0
-4135 1060 0
4135 -1060 0
-4136 4135 1064 0
4136 -4135 0
4136 -1064 0
-4137 4135 0
-4137 1064 0
4137 -4135 -1064 0
-4138 4136 1068 0
4138 -4136 0
4138 -1068 0
-4139 4137 4136 0
-4139 4137 1068 0
4139 -4137 0
4139 -4136 -1068 0
-4140 4137 0
-4140 1068 0
4140 -4137 -1068 0
-4138 4132 0
4138 -4132 0
-4139 4133 0
4139 -4133 0
-4140 4134 0
4140 -4134 0
-4141 1071 0
4141 -1071 0
-4142 4141 1075 0
4142 -4141 0
4142 -1075 0
-4143 4141 0
-4143 1075 0
4143 -4141 -1075 0
-4144 4142 1079 0
4144 -4142 0
4144 -1079 0
-4145 4143 4142 0
-4145 4143 1079 0
4145 -4143 0
4145 -4142 -1079 0
-4146 4143 0
-4146 1079 0
4146 -4143 -1079 0
-4147 1072 0
4147 -1072 0
-4148 4147 1076 0
4148 -4147 0
4148 -1076 0
-4149 4147 0
-4149 1076 0
4149 -4147 -1076 0
-4150 4148 1080 0
4150 -4148 0
4150 -1080 0
-4151 4149 4148 0
-4151 4149 1080 0
4151 -4149 0
4151 -4148 -1080 0
-4152 4149 0
-4152 1080 0
4152 -4149 -1080 0
-4150 4144 0
4150 -4144 0
-4151 4145 0
4151 -4145 0
-4152 4146 0
4152 -4146 0
-4153 1083 0
4153 -1083 0
-4154 4153 1087 0
4154 -4153 0
4154 -1087 0
-4155 4153 0
-4155 1087 0
4155 -4153 -1087 0
-4156 4154 1091 0
4156 -4154 0
4156 -1091 0
-4157 4155 4154 0
-4157 4155 1091 0
4157 -4155 0
4157 -4154 -1091 0
-4158 4155 0
-4158 1091 0
4158 -4155 -1091 0
-4159 1084 0
4159 -1084 0
-4160 4159 1088 0
4160 -4159 0
4160 -1088 0
-4161 4159 0
-4161 1088 0
4161 -4159 -1088 0
-4162 4160 1092 0
4162 -4160 0
4162 -1092 0
-4163 4161 4160 0
-4163 4161 1092 0
4163 -4161 0
4163 -4160 -1092 0
-4164 4161 0
-4164 1092 0
4164 -4161 -1092 0
-4162 4156 0
4162 -4156 0
-4163 4157 0
4163 -4157 0
-4164 4158 0
4164 -4158 0
-4165 1095 0
4165 -1095 0
-4166 4165 1099 0
4166 -4165 0
4166 -1099 0
-4167 4165 0
-4167 1099 0
4167 -4165 -1099 0
-4168 4166 1103 0
4168 -4166 0
4168 -1103 0
-4169 4167 4166 0
-4169 4167 1103 0
4169 -4167 0
4169 -4166 -1103 0
-4170 4167 0
-4170 1103 0
4170 -4167 -1103 0
-4171 1096 0
4171 -1096 0
-4172 4171 1100 0
4172 -4171 0
4172 -1100 0
-4173 4171 0
-4173 1100 0
4173 -4171 -1100 0
-4174 4172 1104 0
4174 -4172 0
4174 -1104 0
-4175 4173 4172 0
-4175 4173 1104 0
4175 -4173 0
4175 -4172 -1104 0
-4176 4173 0
-4176 1104 0
4176 -4173 -1104 0
-4174 4168 0
4174 -4168 0
-4175 4169 0
4175 -4169 0
-4176 4170 0
4176 -4170 0
-4177 1107 0
4177 -1107 0
-4178 4177 1111 0
4178 -4177 0
4178 -1111 0
-4179 4177 0
-4179 1111 0
4179 -4177 -1111 0
-4180 4178 1115 0
4180 -4178 0
4180 -1115 0
-4181 4179 4178 0
-4181 4179 1115 0
4181 -4179 0
4181 -4178 -1115 0
-4182 4179 0
-4182 1115 0
4182 -4179 -1115 0
-4183 1108 0
4183 -1108 0
-4184 4183 1112 0
4184 -4183 0
4184 -1112 0
-4185 4183 0
-4185 1112 0
4185 -4183 -1112 0
-4186 4184 1116 0
4186 -4184 0
4186 -1116 0
-4187 4185 4184 0
-4187 4185 1116 0
4187 -4185 0
4187 -4184 -1116 0
-4188 4185 0
-4188 1116 0
4188 -4185 -1116 0
-4186 4180 0
4186 -4180 0
-4187 4181 0
4187 -4181 0
-4188 4182 0
4188 -4182 0
-4189 1119 0
4189 -1119 0
-4190 4189 1123 0
4190 -4189 0
4190 -1123 0
-4191 4189 0
-4191 1123 0
4191 -4189 -1123 0
-4192 4190 1127 0
4192 -4190 0
4192 -1127 0
-4193 4191 4190 0
-4193 4191 1127 0
4193 -4191 0
4193 -4190 -1127 0
-4194 4191 0
-4194 1127 0
4194 -4191 -1127 0
-4195 1120 0
4195 -1120 0
-4196 4195 1124 0
4196 -4195 0
4196 -1124 0
-4197 4195 0
-4197 1124 0
4197 -4195 -1124 0
-4198 4196 1128 0
4198 -4196 0
4198 -1128 0
-4199 4197 4196 0
-4199 4197 1128 0
4199 -4197 0
4199 -4196 -1128 0
-4200 4197 0
-4200 1128 0
4200 -4197 -1128 0
-4198 4192 0
4198 -4192 0
-4199 4193 0
4199 -4193 0
-4200 4194 0
4200 -4194 0
-4201 1131 0
4201 -1131 0
-4202 4201 1135 0
4202 -4201 0
4202 -1135 0
-4203 4201 0
-4203 1135 0
4203 -4201 -1135 0
-4204 4202 1139 0
4204 -4202 0
4204 -1139 0
-4205 4203 4202 0
-4205 4203 1139 0
4205 -4203 0
4205 -4202 -1139 0
-4206 4203 0
-4206 1139 0
4206 -4203 -1139 0
-4207 1132 0
4207 -1132 0
-4208 4207 1136 0
4208 -4207 0
4208 -1136 0
-4209 4207 0
-4209 1136 0
4209 -4207 -1136 0
-4210 4208 1140 0
4210 -4208 0
4210 -1140 0
-4211 4209 4208 0
-4211 4209 1140 0
4211 -4209 0
4211 -4208 -1140 0
-4212 4209 0
-4212 1140 0
4212 -4209 -1140 0
-4210 4204 0
4210 -4204 0
-4211 4205 0
4211 -4205 0
-4212 4206 0
4212 -4206 0
-4213 1143 0
4213 -1143 0
-4214 4213 1147 0
4214 -4213 0
4214 -1147 0
-4215 4213 0
-4215 1147 0
4215 -4213 -1147 0
-4216 4214 1151 0
4216 -4214 0
4216 -1151 0
-4217 4215 4214 0
-4217 4215 1151 0
4217 -4215 0
4217 -4214 -1151 0
-4218 4215 0
-4218 1151 0
4218 -4215 -1151 0
-4219 1144 0
4219 -1144 0
-4220 4219 1148 0
4220 -4219 0
4220 -1148 0
-4221 4219 0
-4221 1148 0
4221 -4219 -1148 0
-4222 4220 1152 0
4222 -4220 0
4222 -1152 0
-4223 4221 4220 0
-4223 4221 1152 0
4223 -4221 0
4223 -4220 -1152 0
-4224 4221 0
-4224 1152 0
4224 -4221 -1152 0
-4222 4216 0
4222 -4216 0
-4223 4217 0
4223 -4217 0
-4224 4218 0
4224 -4218 0
-4225 1155 0
4225 -1155 0
-4226 4225 1159 0
4226 -4225 0
4226 -1159 0
-4227 4225 0
-4227 1159 0
4227 -4225 -1159 0
-4228 4226 1163 0
4228 -4226 0
4228 -1163 0
-4229 4227 4226 0
-4229 4227 1163 0
4229 -4227 0
4229 -4226 -1163 0
-4230 4227 0
-4230 1163 0
4230 -4227 -1163 0
-4231 1156 0
4231 -1156 0
-4232 4231 1160 0
4232 -4231 0
4232 -1160 0
-4233 4231 0
-4233 1160 0
4233 -4231 -1160 0
-4234 4232 1164 0
4234 -4232 0
4234 -1164 0
-4235 4233 4232 0
-4235 4233 1164 0
4235 -4233 0
4235 -4232 -1164 0
-4236 4233 0
-4236 1164 0
4236 -4233 -1164 0
-4234 4228 0
4234 -4228 0
-4235 4229 0
4235 -4229 0
-4236 4230 0
4236 -4230 0
-4237 1167 0
4237 -1167 0
-4238 4237 1171 0
4238 -4237 0
4238 -1171 0
-4239 4237 0
-4239 1171 0
4239 -4237 -1171 0
-4240 4238 1175 0
4240 -4238 0
4240 -1175 0
-4241 4239 4238 0
-4241 4239 1175 0
4241 -4239 0
4241 -4238 -1175 0
-4242 4239 0
-4242 1175 0
4242 -4239 -1175 0
-4243 1168 0
4243 -1168 0
-4244 4243 1172 0
4244 -4243 0
4244 -1172 0
-4245 4243 0
-4245 1172 0
4245 -4243 -1172 0
-4246 4244 1176 0
4246 -4244 0
4246 -1176 0
-4247 4245 4244 0
-4247 4245 1176 0
4247 -4245 0
4247 -4244 -1176 0
-4248 4245 0
-4248 1176 0
4248 -4245 -1176 0
-4246 4240 0
4246 -4240 0
-4247 4241 0
4247 -4241 0
-4248 4242 0
4248 -4242 0
-4249 1179 0
4249 -1179 0
-4250 4249 1183 0
4250 -4249 0
4250 -1183 0
-4251 4249 0
-4251 1183 0
4251 -4249 -1183 0
-4252 4250 1187 0
4252 -4250 0
4252 -1187 0
-4253 4251 4250 0
-4253 4251 1187 0
4253 -4251 0
4253 -4250 -1187 0
-4254 4251 0
-4254 1187 0
4254 -4251 -1187 0
-4255 1180 0
4255 -1180 0
-4256 4255 1184 0
4256 -4255 0
4256 -1184 0
-4257 4255 0
-4257 1184 0
4257 -4255 -1184 0
-4258 4256 1188 0
4258 -4256 0
4258 -1188 0
-4259 4257 4256 0
-4259 4257 1188 0
4259 -4257 0
4259 -4256 -1188 0
-4260 4257 0
-4260 1188 0
4260 -4257 -1188 0
-4258 4252 0
4258 -4252 0
-4259 4253 0
4259 -4253 0
-4260 4254 0
4260 -4254 0
-4261 1191 0
4261 -1191 0
-4262 4261 1195 0
4262 -4261 0
4262 -1195 0
-4263 4261 0
-4263 1195 0
4263 -4261 -1195 0
-4264 4262 1199 0
4264 -4262 0
4264 -1199 0
-4265 4263 4262 0
-4265 4263 1199 0
4265 -4263 0
4265 -4262 -1199 0
-4266 4263 0
-4266 1199 0
4266 -4263 -1199 0
-4267 1192 0
4267 -1192 0
-4268 4267 1196 0
4268 -4267 0
4268 -1196 0
-4269 4267 0
-4269 1196 0
4269 -4267 -1196 0
-4270 4268 1200 0
4270 -4268 0
4270 -1200 0
-4271 4269 4268 0
-4271 4269 1200 0
4271 -4269 0
4271 -4268 -1200 0
-4272 4269 0
-4272 1200 0
4272 -4269 -1200 0
-4270 4264 0
4270 -4264 0
-4271 4265 0
4271 -4265 0
-4272 4266 0
4272 -4266 0
-4273 1203 0
4273 -1203 0
-4274 4273 1207 0
4274 -4273 0
4274 -1207 0
-4275 4273 0
-4275 1207 0
4275 -4273 -1207 0
-4276 4274 1211 0
4276 -4274 0
4276 -1211 0
-4277 4275 4274 0
-4277 4275 1211 0
4277 -4275 0
4277 -4274 -1211 0
-4278 4275 0
-4278 1211 0
4278 -4275 -1211 0
-4279 1204 0
4279 -1204 0
-4280 4279 1208 0
4280 -4279 0
4280 -1208 0
-4281 4279 0
-4281 1208 0
4281 -4279 -1208 0
-4282 4280 1212 0
4282 -4280 0
4282 -1212 0
-4283 4281 4280 0
-4283 4281 1212 0
4283 -4281 0
4283 -4280 -1212 0
-4284 4281 0
-4284 1212 0
4284 -4281 -1212 0
-4282 4276 0
4282 -4276 0
-4283 4277 0
4283 -4277 0
-4284 4278 0
4284 -4278 0
-4285 1215 0
4285 -1215 0
-4286 4285 1219 0
4286 -4285 0
4286 -1219 0
-4287 4285 0
-4287 1219 0
4287 -4285 -1219 0
-4288 4286 1223 0
4288 -4286 0
4288 -1223 0
-4289 4287 4286 0
-4289 4287 1223 0
4289 -4287 0
4289 -4286 -1223 0
-4290 4287 0
-4290 1223 0
4290 -4287 -1223 0
-4291 1216 0
4291 -1216 0
-4292 4291 1220 0
4292 -4291 0
4292 -1220 0
-4293 4291 0
-4293 1220 0
4293 -4291 -1220 0
-4294 4292 1224 0
4294 -4292 0
4294 -1224 0
-4295 4293 4292 0
-4295 4293 1224 0
4295 -4293 0
4295 -4292 -1224 0
-4296 4293 0
-4296 1224 0
4296 -4293 -1224 0
-4294 4289 0
4294 -4289 0
-4295 4290 0
4295 -4290 0
-4296 0
4288 0
-4297 1227 0
4297 -1227 0
-4298 4297 1231 0
4298 -4297 0
4298 -1231 0
-4299 4297 0
-4299 1231 0
4299 -4297 -1231 0
-4300 4298 1235 0
4300 -4298 0
4300 -1235 0
-4301 4299 4298 0
-4301 4299 1235 0
4301 -4299 0
4301 -4298 -1235 0
-4302 4299 0
-4302 1235 0
4302 -4299 -1235 0
-4303 1228 0
4303 -1228 0
-4304 4303 1232 0
4304 -4303 0
4304 -1232 0
-4305 4303 0
-4305 1232 0
4305 -4303 -1232 0
-4306 4304 1236 0
4306 -4304 0
4306 -1236 0
-4307 4305 4304 0
-4307 4305 1236 0
4307 -4305 0
4307 -4304 -1236 0
-4308 4305 0
-4308 1236 0
4308 -4305 -1236 0
-4306 4300 0
4306 -4300 0
-4307 4301 0
4307 -4301 0
-4308 4302 0
4308 -4302 0
-4309 1239 0
4309 -1239 0
-4310 4309 1243 0
4310 -4309 0
4310 -1243 0
-4311 4309 0
-4311 1243 0
4311 -4309 -1243 0
-4312 4310 1247 0
4312 -4310 0
4312 -1247 0
-4313 4311 4310 0
-4313 4311 1247 0
4313 -4311 0
4313 -4310 -1247 0
-4314 4311 0
-4314 1247 0
4314 -4311 -1247 0
-4315 1240 0
4315 -1240 0
-4316 4315 1244 0
4316 -4315 0
4316 -1244 0
-4317 4315 0
-4317 1244 0
4317 -4315 -1244 0
-4318 4316 1248 0
4318 -4316 0
4318 -1248 0
-4319 4317 4316 0
-4319 4317 1248 0
4319 -4317 0
4319 -4316 -1248 0
-4320 4317 0
-4320 1248 0
4320 -4317 -1248 0
-4318 4312 0
4318 -4312 0
-4319 4313 0
4319 -4313 0
-4320 4314 0
4320 -4314 0
-4321 1251 0
4321 -1251 0
-4322 4321 1255 0
4322 -4321 0
4322 -1255 0
-4323 4321 0
-4323 1255 0
4323 -4321 -1255 0
-4324 4322 1259 0
4324 -4322 0
4324 -1259 0
-4325 4323 4322 0
-4325 4323 1259 0
4325 -4323 0
4325 -4322 -1259 0
-4326 4323 0
-4326 1259 0
4326 -4323 -1259 0
-4327 1252 0
4327 -1252 0
-4328 4327 1256 0
4328 -4327 0
4328 -1256 0
-4329 4327 0
-4329 1256 0
4329 -4327 -1256 0
-4330 4328 1260 0
4330 -4328 0
4330 -1260 0
-4331 4329 4328 0
-4331 4329 1260 0
4331 -4329 0
4331 -4328 -1260 0
-4332 4329 0
-4332 1260 0
4332 -4329 -1260 0
-4330 4324 0
4330 -4324 0
-4331 4325 0
4331 -4325 0
-4332 4326 0
4332 -4326 0
-4333 1263 0
4333 -1263 0
-4334 4333 1267 0
4334 -4333 0
4334 -1267 0
-4335 4333 0
-4335 1267 0
4335 -4333 -1267 0
-4336 4334 1271 0
4336 -4334 0
4336 -1271 0
-4337 4335 4334 0
-4337 4335 1271 0
4337 -4335 0
4337 -4334 -1271 0
-4338 4335 0
-4338 1271 0
4338 -4335 -1271 0
-4339 1264 0
4339 -1264 0
-4340 4339 1268 0
4340 -4339 0
4340 -1268 0
-4341 4339 0
-4341 1268 0
4341 -4339 -1268 0
-4342 4340 1272 0
4342 -4340 0
4342 -1272 0
-4343 4341 4340 0
-4343 4341 1272 0
4343 -4341 0
4343 -4340 -1272 0
-4344 4341 0
-4344 1272 0
4344 -4341 -1272 0
-4342 4336 0
4342 -4336 0
-4343 4337 0
4343 -4337 0
-4344 4338 0
4344 -4338 0
-4345 1275 0
4345 -1275 0
-4346 4345 1279 0
4346 -4345 0
4346 -1279 0
-4347 4345 0
-4347 1279 0
4347 -4345 -1279 0
-4348 4346 1283 0
4348 -4346 0
4348 -1283 0
-4349 4347 4346 0
-4349 4347 1283 0
4349 -4347 0
4349 -4346 -1283 0
-4350 4347 0
-4350 1283 0
4350 -4347 -1283 0
-4351 1276 0
4351 -1276 0
-4352 4351 1280 0
4352 -4351 0
4352 -1280 0
-4353 4351 0
-4353 1280 0
4353 -4351 -1280 0
-4354 4352 1284 0
4354 -4352 0
4354 -1284 0
-4355 4353 4352 0
-4355 4353 1284 0
4355 -4353 0
4355 -4352 -1284 0
-4356 4353 0
-4356 1284 0
4356 -4353 -1284 0
-4354 4348 0
4354 -4348 0
-4355 4349 0
4355 -4349 0
-4356 4350 0
4356 -4350 0
-4357 1287 0
4357 -1287 0
-4358 4357 1291 0
4358 -4357 0
4358 -1291 0
-4359 4357 0
-4359 1291 0
4359 -4357 -1291 0
-4360 4358 1295 0
4360 -4358 0
4360 -1295 0
-4361 4359 4358 0
-4361 4359 1295 0
4361 -4359 0
4361 -4358 -1295 0
-4362 4359 0
-4362 1295 0
4362 -4359 -1295 0
-4363 1288 0
4363 -1288 0
-4364 4363 1292 0
4364 -4363 0
4364 -1292 0
-4365 4363 0
-4365 1292 0
4365 -4363 -1292 0
-4366 4364 1296 0
4366 -4364 0
4366 -1296 0
-4367 4365 4364 0
-4367 4365 1296 0
4367 -4365 0
4367 -4364 -1296 0
-4368 4365 0
-4368 1296 0
4368 -4365 -1296 0
-4366 4360 0
4366 -4360 0
-4367 4361 0
4367 -4361 0
-4368 4362 0
4368 -4362 0
-4369 1299 0
4369 -1299 0
-4370 4369 1303 0
4370 -4369 0
4370 -1303 0
-4371 4369 0
-4371 1303 0
4371 -4369 -1303 0
-4372 4370 1307 0
4372 -4370 0
4372 -1307 0
-4373 4371 4370 0
-4373 4371 1307 0
4373 -4371 0
4373 -4370 -1307 0
-4374 4371 0
-4374 1307 0
4374 -4371 -1307 0
-4375 1300 0
4375 -1300 0
-4376 4375 1304 0
4376 -4375 0
4376 -1304 0
-4377 4375 0
-4377 1304 0
4377 -4375 -1304 0
-4378 4376 1308 0
4378 -4376 0
4378 -1308 0
-4379 4377 4376 0
-4379 4377 1308 0
4379 -4377 0
4379 -4376 -1308 0
-4380 4377 0
-4380 1308 0
4380 -4377 -1308 0
-4378 4372 0
4378 -4372 0
-4379 4373 0
4379 -4373 0
-4380 4374 0
4380 -4374 0
-4381 1311 0
4381 -1311 0
-4382 4381 1315 0
4382 -4381 0
4382 -1315 0
-4383 4381 0
-4383 1315 0
4383 -4381 -1315 0
-4384 4382 1319 0
4384 -4382 0
4384 -1319 0
-4385 4383 4382 0
-4385 4383 1319 0
4385 -4383 0
4385 -4382 -1319 0
-4386 4383 0
-4386 1319 0
4386 -4383 -1319 0
-4387 1312 0
4387 -1312 0
-4388 4387 1316 0
4388 -4387 0
4388 -1316 0
-4389 4387 0
-4389 1316 0
4389 -4387 -1316 0
-4390 4388 1320 0
4390 -4388 0
4390 -1320 0
-4391 4389 4388 0
-4391 4389 1320 0
4391 -4389 0
4391 -4388 -1320 0
-4392 4389 0
-4392 1320 0
4392 -4389 -1320 0
-4390 4384 0
4390 -4384 0
-4391 4385 0
4391 -4385 0
-4392 4386 0
4392 -4386 0
-4393 1323 0
4393 -1323 0
-4394 4393 1327 0
4394 -4393 0
4394 -1327 0
-4395 4393 0
-4395 1327 0
4395 -4393 -1327 0
-4396 4394 1331 0
4396 -4394 0
4396 -1331 0
-4397 4395 4394 0
-4397 4395 1331 0
4397 -4395 0
4397 -4394 -1331 0
-4398 4395 0
-4398 1331 0
4398 -4395 -1331 0
-4399 1324 0
4399 -1324 0
-4400 4399 1328 0
4400 -4399 0
4400 -1328 0
-4401 4399 0
-4401 1328 0
4401 -4399 -1328 0
-4402 4400 1332 0
4402 -4400 0
4402 -1332 0
-4403 4401 4400 0
-4403 4401 1332 0
4403 -4401 0
4403 -4400 -1332 0
-4404 4401 0
-4404 1332 0
4404 -4401 -1332 0
-4402 4396 0
4402 -4396 0
-4403 4397 0
4403 -4397 0
-4404 4398 0
4404 -4398 0
-4405 1335 0
4405 -1335 0
-4406 4405 1339 0
4406 -4405 0
4406 -1339 0
-4407 4405 0
-4407 1339 0
4407 -4405 -1339 0
-4408 4406 1343 0
4408 -4406 0
4408 -1343 0
-4409 4407 4406 0
-4409 4407 1343 0
4409 -4407 0
4409 -4406 -1343 0
-4410 4407 0
-4410 1343 0
4410 -4407 -1343 0
-4411 1336 0
4411 -1336 0
-4412 4411 1340 0
4412 -4411 0
4412 -1340 0
-4413 4411 0
-4413 1340 0
4413 -4411 -1340 0
-4414 4412 1344 0
4414 -4412 0
4414 -1344 0
-4415 4413 4412 0
-4415 4413 1344 0
4415 -4413 0
4415 -4412 -1344 0
-4416 4413 0
-4416 1344 0
4416 -4413 -1344 0
-4414 4408 0
4414 -4408 0
-4415 4409 0
4415 -4409 0
-4416 4410 0
4416 -4410 0
-4417 1347 0
4417 -1347 0
-4418 4417 1351 0
4418 -4417 0
4418 -1351 0
-4419 4417 0
-4419 1351 0
4419 -4417 -1351 0
-4420 4418 1355 0
4420 -4418 0
4420 -1355 0
-4421 4419 4418 0
-4421 4419 1355 0
4421 -4419 0
4421 -4418 -1355 0
-4422 4419 0
-4422 1355 0
4422 -4419 -1355 0
-4423 1348 0
4423 -1348 0
-4424 4423 1352 0
4424 -4423 0
4424 -1352 0
-4425 4423 0
-4425 1352 0
4425 -4423 -1352 0
-4426 4424 1356 0
4426 -4424 0
4426 -1356 0
-4427 4425 4424 0
-4427 4425 1356 0
4427 -4425 0
4427 -4424 -1356 0
-4428 4425 0
-4428 1356 0
4428 -4425 -1356 0
-4426 4420 0
4426 -4420 0
-4427 4421 0
4427 -4421 0
-4428 4422 0
4428 -4422 0
-4429 1359 0
4429 -1359 0
-4430 4429 1363 0
4430 -4429 0
4430 -1363 0
-4431 4429 0
-4431 1363 0
4431 -4429 -1363 0
-4432 4430 1367 0
4432 -4430 0
4432 -1367 0
-4433 4431 4430 0
-4433 4431 1367 0
4433 -4431 0
4433 -4430 -1367 0
-4434 4431 0
-4434 1367 0
4434 -4431 -1367 0
-4435 1360 0
4435 -1360 0
-4436 4435 1364 0
4436 -4435 0
4436 -1364 0
-4437 4435 0
-4437 1364 0
4437 -4435 -1364 0
-4438 4436 1368 0
4438 -4436 0
4438 -1368 0
-4439 4437 4436 0
-4439 4437 1368 0
4439 -4437 0
4439 -4436 -1368 0
-4440 4437 0
-4440 1368 0
4440 -4437 -1368 0
-4438 4432 0
4438 -4432 0
-4439 4433 0
4439 -4433 0
-4440 4434 0
4440 -4434 0
-4441 1371 0
4441 -1371 0
-4442 4441 1375 0
4442 -4441 0
4442 -1375 0
-4443 4441 0
-4443 1375 0
4443 -4441 -1375 0
-4444 4442 1379 0
4444 -4442 0
4444 -1379 0
-4445 4443 4442 0
-4445 4443 1379 0
4445 -4443 0
4445 -4442 -1379 0
-4446 4443 0
-4446 1379 0
4446 -4443 -1379 0
-4447 1372 0
4447 -1372 0
-4448 4447 1376 0
4448 -4447 0
4448 -1376 0
-4449 4447 0
-4449 1376 0
4449 -4447 -1376 0
-4450 4448 1380 0
4450 -4448 0
4450 -1380 0
-4451 4449 4448 0
-4451 4449 1380 0
4451 -4449 0
4451 -4448 -1380 0
-4452 4449 0
-4452 1380 0
4452 -4449 -1380 0
-4450 4444 0
4450 -4444 0
-4451 4445 0
4451 -4445 0
-4452 4446 0
4452 -4446 0
-4453 1383 0
4453 -1383 0
-4454 4453 1387 0
4454 -4453 0
4454 -1387 0
-4455 4453 0
-4455 1387 0
4455 -4453 -1387 0
-4456 4454 1391 0
4456 -4454 0
4456 -1391 0
-4457 4455 4454 0
-4457 4455 1391 0
4457 -4455 0
4457 -4454 -1391 0
-4458 4455 0
-4458 1391 0
4458 -4455 -1391 0
-4459 1384 0
4459 -1384 0
-4460 4459 1388 0
4460 -4459 0
4460 -1388 0
-4461 4459 0
-4461 1388 0
4461 -4459 -1388 0
-4462 4460 1392 0
4462 -4460 0
4462 -1392 0
-4463 4461 4460 0
-4463 4461 1392 0
4463 -4461 0
4463 -4460 -1392 0
-4464 4461 0
-4464 1392 0
4464 -4461 -1392 0
-4462 4456 0
4462 -4456 0
-4463 4457 0
4463 -4457 0
-4464 4458 0
4464 -4458 0
-4465 1395 0
4465 -1395 0
-4466 4465 1399 0
4466 -4465 0
4466 -1399 0
-4467 4465 0
-4467 1399 0
4467 -4465 -1399 0
-4468 4466 1403 0
4468 -4466 0
4468 -1403 0
-4469 4467 4466 0
-4469 4467 1403 0
4469 -4467 0
4469 -4466 -1403 0
-4470 4467 0
-4470 1403 0
4470 -4467 -1403 0
-4471 1396 0
4471 -1396 0
-4472 4471 1400 0
4472 -4471 0
4472 -1400 0
-4473 4471 0
-4473 1400 0
4473 -4471 -1400 0
-4474 4472 1404 0
4474 -4472 0
4474 -1404 0
-4475 4473 4472 0
-4475 4473 1404 0
4475 -4473 0
4475 -4472 -1404 0
-4476 4473 0
-4476 1404 0
4476 -4473 -1404 0
-4474 4468 0
4474 -4468 0
-4475 4469 0
4475 -4469 0
-4476 4470 0
4476 -4470 0
-4477 1407 0
4477 -1407 0
-4478 4477 1411 0
4478 -4477 0
4478 -1411 0
-4479 4477 0
-4479 1411 0
4479 -4477 -1411 0
-4480 4478 1415 0
4480 -4478 0
4480 -1415 0
-4481 4479 4478 0
-4481 4479 1415 0
4481 -4479 0
4481 -4478 -1415 0
-4482 4479 0
-4482 1415 0
4482 -4479 -1415 0
-4483 1408 0
4483 -1408 0
-4484 4483 1412 0
4484 -4483 0
4484 -1412 0
-4485 4483 0
-4485 1412 0
4485 -4483 -1412 0
-4486 4484 1416 0
4486 -4484 0
4486 -1416 0
-4487 4485 4484 0
-4487 4485 1416 0
4487 -4485 0
4487 -4484 -1416 0
-4488 4485 0
-4488 1416 0
4488 -4485 -1416 0
-4486 4480 0
4486 -4480 0
-4487 4481 0
4487 -4481 0
-4488 4482 0
4488 -4482 0
-4489 1419 0
4489 -1419 0
-4490 4489 1423 0
4490 -4489 0
4490 -1423 0
-4491 4489 0
-4491 1423 0
4491 -4489 -1423 0
-4492 4490 1427 0
4492 -4490 0
4492 -1427 0
-4493 4491 4490 0
-4493 4491 1427 0
4493 -4491 0
4493 -4490 -1427 0
-4494 4491 0
-4494 1427 0
4494 -4491 -1427 0
-4495 1420 0
4495 -1420 0
-4496 4495 1424 0
4496 -4495 0
4496 -1424 0
-4497 4495 0
-4497 1424 0
4497 -4495 -1424 0
-4498 4496 1428 0
4498 -4496 0
4498 -1428 0
-4499 4497 4496 0
-4499 4497 1428 0
4499 -4497 0
4499 -4496 -1428 0
-4500 4497 0
-4500 1428 0
4500 -4497 -1428 0
-4498 4492 0
4498 -4492 0
-4499 4493 0
4499 -4493 0
-4500 4494 0
4500 -4494 0
-4501 1431 0
4501 -1431 0
-4502 4501 1435 0
4502 -4501 0
4502 -1435 0
-4503 4501 0
-4503 1435 0
4503 -4501 -1435 0
-4504 4502 1439 0
4504 -4502 0
4504 -1439 0
-4505 4503 4502 0
-4505 4503 1439 0
4505 -4503 0
4505 -4502 -1439 0
-4506 4503 0
-4506 1439 0
4506 -4503 -1439 0
-4507 1432 0
4507 -1432 0
-4508 4507 1436 0
4508 -4507 0
4508 -1436 0
-4509 4507 0
-4509 1436 0
4509 -4507 -1436 0
-4510 4508 1440 0
4510 -4508 0
4510 -1440 0
-4511 4509 4508 0
-4511 4509 1440 0
4511 -4509 0
4511 -4508 -1440 0
-4512 4509 0
-4512 1440 0
4512 -4509 -1440 0
-4510 4504 0
4510 -4504 0
-4511 4505 0
4511 -4505 0
-4512 4506 0
4512 -4506 0
-4513 1443 0
4513 -1443 0
-4514 4513 1447 0
4514 -4513 0
4514 -1447 0
-4515 4513 0
-4515 1447 0
4515 -4513 -1447 0
-4516 4514 1451 0
4516 -4514 0
4516 -1451 0
-4517 4515 4514 0
-4517 4515 1451 0
4517 -4515 0
4517 -4514 -1451 0
-4518 4515 0
-4518 1451 0
4518 -4515 -1451 0
-4519 1444 0
4519 -1444 0
-4520 4519 1448 0
4520 -4519 0
4520 -1448 0
-4521 4519 0
-4521 1448 0
4521 -4519 -1448 0
-4522 4520 1452 0
4522 -4520 0
4522 -1452 0
-4523 4521 4520 0
-4523 4521 1452 0
4523 -4521 0
4523 -4520 -1452 0
-4524 4521 0
-4524 1452 0
4524 -4521 -1452 0
-4522 4516 0
4522 -4516 0
-4523 4517 0
4523 -4517 0
-4524 4518 0
4524 -4518 0
-4525 1455 0
4525 -1455 0
-4526 4525 1459 0
4526 -4525 0
4526 -1459 0
-4527 4525 0
-4527 1459 0
4527 -4525 -1459 0
-4528 4526 1463 0
4528 -4526 0
4528 -1463 0
-4529 4527 4526 0
-4529 4527 1463 0
4529 -4527 0
4529 -4526 -1463 0
-4530 4527 0
-4530 1463 0
4530 -4527 -1463 0
-4531 1456 0
4531 -1456 0
-4532 4531 1460 0
4532 -4531 0
4532 -1460 0
-4533 4531 0
-4533 1460 0
4533 -4531 -1460 0
-4534 4532 1464 0
4534 -4532 0
4534 -1464 0
-4535 4533 4532 0
-4535 4533 1464 0
4535 -4533 0
4535 -4532 -1464 0
-4536 4533 0
-4536 1464 0
4536 -4533 -1464 0
-4534 4528 0
4534 -4528 0
-4535 4529 0
4535 -4529 0
-4536 4530 0
4536 -4530 0
-4537 1467 0
4537 -1467 0
-4538 4537 1471 0
4538 -4537 0
4538 -1471 0
-4539 4537 0
-4539 1471 0
4539 -4537 -1471 0
-4540 4538 1475 0
4540 -4538 0
4540 -1475 0
-4541 4539 4538 0
-4541 4539 1475 0
4541 -4539 0
4541 -4538 -1475 0
-4542 4539 0
-4542 1475 0
4542 -4539 -1475 0
-4543 1468 0
4543 -1468 0
-4544 4543 1472 0
4544 -4543 0
4544 -1472 0
-4545 4543 0
-4545 1472 0
4545 -4543 -1472 0
-4546 4544 1476 0
4546 -4544 0
4546 -1476 0
-4547 4545 4544 0
-4547 4545 1476 0
4547 -4545 0
4547 -4544 -1476 0
-4548 4545 0
-4548 1476 0
4548 -4545 -1476 0
-4546 4540 0
4546 -4540 0
-4547 4541 0
4547 -4541 0
-4548 4542 0
4548 -4542 0
-4549 1479 0
4549 -1479 0
-4550 4549 1483 0
4550 -4549 0
4550 -1483 0
-4551 4549 0
-4551 1483 0
4551 -4549 -1483 0
-4552 4550 1487 0
4552 -4550 0
4552 -1487 0
-4553 4551 4550 0
-4553 4551 1487 0
4553 -4551 0
4553 -4550 -1487 0
-4554 4551 0
-4554 1487 0
4554 -4551 -1487 0
-4555 1480 0
4555 -1480 0
-4556 4555 1484 0
4556 -4555 0
4556 -1484 0
-4557 4555 0
-4557 1484 0
4557 -4555 -1484 0
-4558 4556 1488 0
4558 -4556 0
4558 -1488 0
-4559 4557 4556 0
-4559 4557 1488 0
4559 -4557 0
4559 -4556 -1488 0
-4560 4557 0
-4560 1488 0
4560 -4557 -1488 0
-4558 4552 0
4558 -4552 0
-4559 4553 0
4559 -4553 0
-4560 4554 0
4560 -4554 0
-4561 1491 0
4561 -1491 0
-4562 4561 1495 0
4562 -4561 0
4562 -1495 0
-4563 4561 0
-4563 1495 0
4563 -4561 -1495 0
-4564 4562 1499 0
4564 -4562 0
4564 -1499 0
-4565 4563 4562 0
-4565 4563 1499 0
4565 -4563 0
4565 -4562 -1499 0
-4566 4563 0
-4566 1499 0
4566 -4563 -1499 0
-4567 1492 0
4567 -1492 0
-4568 4567 1496 0
4568 -4567 0
4568 -1496 0
-4569 4567 0
-4569 1496 0
4569 -4567 -1496 0
-4570 4568 1500 0
4570 -4568 0
4570 -1500 0
-4571 4569 4568 0
-4571 4569 1500 0
4571 -4569 0
4571 -4568 -1500 0
-4572 4569 0
-4572 1500 0
4572 -4569 -1500 0
-4570 4564 0
4570 -4564 0
-4571 4565 0
4571 -4565 0
-4572 4566 0
4572 -4566 0
-4573 1503 0
4573 -1503 0
-4574 4573 1507 0
4574 -4573 0
4574 -1507 0
-4575 4573 0
-4575 1507 0
4575 -4573 -1507 0
-4576 4574 1511 0
4576 -4574 0
4576 -1511 0
-4577 4575 4574 0
-4577 4575 1511 0
4577 -4575 0
4577 -4574 -1511 0
-4578 4575 0
-4578 1511 0
4578 -4575 -1511 0
-4579 1504 0
4579 -1504 0
-4580 4579 1508 0
4580 -4579 0
4580 -1508 0
-4581 4579 0
-4581 1508 0
4581 -4579 -1508 0
-4582 4580 1512 0
4582 -4580 0
4582 -1512 0
-4583 4581 4580 0
-4583 4581 1512 0
4583 -4581 0
4583 -4580 -1512 0
-4584 4581 0
-4584 1512 0
4584 -4581 -1512 0
-4582 4576 0
4582 -4576 0
-4583 4577 0
4583 -4577 0
-4584 4578 0
4584 -4578 0
-4585 1515 0
4585 -1515 0
-4586 4585 1519 0
4586 -4585 0
4586 -1519 0
-4587 4585 0
-4587 1519 0
4587 -4585 -1519 0
-4588 4586 1523 0
4588 -4586 0
4588 -1523 0
-4589 4587 4586 0
-4589 4587 1523 0
4589 -4587 0
4589 -4586 -1523 0
-4590 4587 0
-4590 1523 0
4590 -4587 -1523 0
-4591 1516 0
4591 -1516 0
-4592 4591 1520 0
4592 -4591 0
4592 -1520 0
-4593 4591 0
-4593 1520 0
4593 -4591 -1520 0
-4594 4592 1524 0
4594 -4592 0
4594 -1524 0
-4595 4593 4592 0
-4595 4593 1524 0
4595 -4593 0
4595 -4592 -1524 0
-4596 4593 0
-4596 1524 0
4596 -4593 -1524 0
-4594 4588 0
4594 -4588 0
-4595 4589 0
4595 -4589 0
-4596 4590 0
4596 -4590 0
-4597 1527 0
4597 -1527 0
-4598 4597 1531 0
4598 -4597 0
4598 -1531 0
-4599 4597 0
-4599 1531 0
4599 -4597 -1531 0
-4600 4598 1535 0
4600 -4598 0
4600 -1535 0
-4601 4599 4598 0
-4601 4599 1535 0
4601 -4599 0
4601 -4598 -1535 0
-4602 4599 0
-4602 1535 0
4602 -4599 -1535 0
-4603 1528 0
4603 -1528 0
-4604 4603 1532 0
4604 -4603 0
4604 -1532 0
-4605 4603 0
-4605 1532 0
4605 -4603 -1532 0
-4606 4604 1536 0
4606 -4604 0
4606 -1536 0
-4607 4605 4604 0
-4607 4605 1536 0
4607 -4605 0
4607 -4604 -1536 0
-4608 4605 0
-4608 1536 0
4608 -4605 -1536 0
-4606 4600 0
4606 -4600 0
-4607 4601 0
4607 -4601 0
-4608 4602 0
4608 -4602 0
-4609 1539 0
4609 -1539 0
-4610 4609 1543 0
4610 -4609 0
4610 -1543 0
-4611 4609 0
-4611 1543 0
4611 -4609 -1543 0
-4612 4610 1547 0
4612 -4610 0
4612 -1547 0
-4613 4611 4610 0
-4613 4611 1547 0
4613 -4611 0
4613 -4610 -1547 0
-4614 4611 0
-4614 1547 0
4614 -4611 -1547 0
-4615 1540 0
4615 -1540 0
-4616 4615 1544 0
4616 -4615 0
4616 -1544 0
-4617 4615 0
-4617 1544 0
4617 -4615 -1544 0
-4618 4616 1548 0
4618 -4616 0
4618 -1548 0
-4619 4617 4616 0
-4619 4617 1548 0
4619 -4617 0
4619 -4616 -1548 0
-4620 4617 0
-4620 1548 0
4620 -4617 -1548 0
-4618 4612 0
4618 -4612 0
-4619 4613 0
4619 -4613 0
-4620 4614 0
4620 -4614 0
-4621 1551 0
4621 -1551 0
-4622 4621 1555 0
4622 -4621 0
4622 -1555 0
-4623 4621 0
-4623 1555 0
4623 -4621 -1555 0
-4624 4622 1559 0
4624 -4622 0
4624 -1559 0
-4625 4623 4622 0
-4625 4623 1559 0
4625 -4623 0
4625 -4622 -1559 0
-4626 4623 0
-4626 1559 0
4626 -4623 -1559 0
-4627 1552 0
4627 -1552 0
-4628 4627 1556 0
4628 -4627 0
4628 -1556 0
-4629 4627 0
-4629 1556 0
4629 -4627 -1556 0
-4630 4628 1560 0
4630 -4628 0
4630 -1560 0
-4631 4629 4628 0
-4631 4629 1560 0
4631 -4629 0
4631 -4628 -1560 0
-4632 4629 0
-4632 1560 0
4632 -4629 -1560 0
-4630 4624 0
4630 -4624 0
-4631 4625 0
4631 -4625 0
-4632 4626 0
4632 -4626 0
-4633 1563 0
4633 -1563 0
-4634 4633 1567 0
4634 -4633 0
4634 -1567 0
-4635 4633 0
-4635 1567 0
4635 -4633 -1567 0
-4636 4634 1571 0
4636 -4634 0
4636 -1571 0
-4637 4635 4634 0
-4637 4635 1571 0
4637 -4635 0
4637 -4634 -1571 0
-4638 4635 0
-4638 1571 0
4638 -4635 -1571 0
-4639 1564 0
4639 -1564 0
-4640 4639 1568 0
4640 -4639 0
4640 -1568 0
-4641 4639 0
-4641 1568 0
4641 -4639 -1568 0
-4642 4640 1572 0
4642 -4640 0
4642 -1572 0
-4643 4641 4640 0
-4643 4641 1572 0
4643 -4641 0
4643 -4640 -1572 0
-4644 4641 0
-4644 1572 0
4644 -4641 -1572 0
-4642 4636 0
4642 -4636 0
-4643 4637 0
4643 -4637 0
-4644 4638 0
4644 -4638 0
-4645 1575 0
4645 -1575 0
-4646 4645 1579 0
4646 -4645 0
4646 -1579 0
-4647 4645 0
-4647 1579 0
4647 -4645 -1579 0
-4648 4646 1583 0
4648 -4646 0
4648 -1583 0
-4649 4647 4646 0
-4649 4647 1583 0
4649 -4647 0
4649 -4646 -1583 0
-4650 4647 0
-4650 1583 0
4650 -4647 -1583 0
-4651 1576 0
4651 -1576 0
-4652 4651 1580 0
4652 -4651 0
4652 -1580 0
-4653 4651 0
-4653 1580 0
4653 -4651 -1580 0
-4654 4652 1584 0
4654 -4652 0
4654 -1584 0
-4655 4653 4652 0
-4655 4653 1584 0
4655 -4653 0
4655 -4652 -1584 0
-4656 4653 0
-4656 1584 0
4656 -4653 -1584 0
-4654 4648 0
4654 -4648 0
-4655 4649 0
4655 -4649 0
-4656 4650 0
4656 -4650 0
-4657 1587 0
4657 -1587 0
-4658 4657 1591 0
4658 -4657 0
4658 -1591 0
-4659 4657 0
-4659 1591 0
4659 -4657 -1591 0
-4660 4658 1595 0
4660 -4658 0
4660 -1595 0
-4661 4659 4658 0
-4661 4659 1595 0
4661 -4659 0
4661 -4658 -1595 0
-4662 4659 0
-4662 1595 0
4662 -4659 -1595 0
-4663 1588 0
4663 -1588 0
-4664 4663 1592 0
4664 -4663 0
4664 -1592 0
-4665 4663 0
-4665 1592 0
4665 -4663 -1592 0
-4666 4664 1596 0
4666 -4664 0
4666 -1596 0
-4667 4665 4664 0
-4667 4665 1596 0
4667 -4665 0
4667 -4664 -1596 0
-4668 4665 0
-4668 1596 0
4668 -4665 -1596 0
-4666 4660 0
4666 -4660 0
-4667 4661 0
4667 -4661 0
-4668 4662 0
4668 -4662 0
-4669 1599 0
4669 -1599 0
-4670 4669 1603 0
4670 -4669 0
4670 -1603 0
-4671 4669 0
-4671 1603 0
4671 -4669 -1603 0
-4672 4670 1607 0
4672 -4670 0
4672 -1607 0
-4673 4671 4670 0
-4673 4671 1607 0
4673 -4671 0
4673 -4670 -1607 0
-4674 4671 0
-4674 1607 0
4674 -4671 -1607 0
-4675 1600 0
4675 -1600 0
-4676 4675 1604 0
4676 -4675 0
4676 -1604 0
-4677 4675 0
-4677 1604 0
4677 -4675 -1604 0
-4678 4676 1608 0
4678 -4676 0
4678 -1608 0
-4679 4677 4676 0
-4679 4677 1608 0
4679 -4677 0
4679 -4676 -1608 0
-4680 4677 0
-4680 1608 0
4680 -4677 -1608 0
-4678 4672 0
4678 -4672 0
-4679 4673 0
4679 -4673 0
-4680 4674 0
4680 -4674 0
-4681 1611 0
4681 -1611 0
-4682 4681 1615 0
4682 -4681 0
4682 -1615 0
-4683 4681 0
-4683 1615 0
4683 -4681 -1615 0
-4684 4682 1619 0
4684 -4682 0
4684 -1619 0
-4685 4683 4682 0
-4685 4683 1619 0
4685 -4683 0
4685 -4682 -1619 0
-4686 4683 0
-4686 1619 0
4686 -4683 -1619 0
-4687 1612 0
4687 -1612 0
-4688 4687 1616 0
4688 -4687 0
4688 -1616 0
-4689 4687 0
-4689 1616 0
4689 -4687 -1616 0
-4690 4688 1620 0
4690 -4688 0
4690 -1620 0
-4691 4689 4688 0
-4691 4689 1620 0
4691 -4689 0
4691 -4688 -1620 0
-4692 4689 0
-4692 1620 0
4692 -4689 -1620 0
-4690 4684 0
4690 -4684 0
-4691 4685 0
4691 -4685 0
-4692 4686 0
4692 -4686 0
-4693 1623 0
4693 -1623 0
-4694 4693 1627 0
4694 -4693 0
4694 -1627 0
-4695 4693 0
-4695 1627 0
4695 -4693 -1627 0
-4696 4694 1631 0
4696 -4694 0
4696 -1631 0
-4697 4695 4694 0
-4697 4695 1631 0
4697 -4695 0
4697 -4694 -1631 0
-4698 4695 0
-4698 1631 0
4698 -4695 -1631 0
-4699 1624 0
4699 -1624 0
-4700 4699 1628 0
4700 -4699 0
4700 -1628 0
-4701 4699 0
-4701 1628 0
4701 -4699 -1628 0
-4702 4700 1632 0
4702 -4700 0
4702 -1632 0
-4703 4701 4700 0
-4703 4701 1632 0
4703 -4701 0
4703 -4700 -1632 0
-4704 4701 0
-4704 1632 0
4704 -4701 -1632 0
-4702 4696 0
4702 -4696 0
-4703 4697 0
4703 -4697 0
-4704 4698 0
4704 -4698 0
-4705 1635 0
4705 -1635 0
-4706 4705 1639 0
4706 -4705 0
4706 -1639 0
-4707 4705 0
-4707 1639 0
4707 -4705 -1639 0
-4708 4706 1643 0
4708 -4706 0
4708 -1643 0
-4709 4707 4706 0
-4709 4707 1643 0
4709 -4707 0
4709 -4706 -1643 0
-4710 4707 0
-4710 1643 0
4710 -4707 -1643 0
-4711 1636 0
4711 -1636 0
-4712 4711 1640 0
4712 -4711 0
4712 -1640 0
-4713 4711 0
-4713 1640 0
4713 -4711 -1640 0
-4714 4712 1644 0
4714 -4712 0
4714 -1644 0
-4715 4713 4712 0
-4715 4713 1644 0
4715 -4713 0
4715 -4712 -1644 0
-4716 4713 0
-4716 1644 0
4716 -4713 -1644 0
-4714 4708 0
4714 -4708 0
-4715 4709 0
4715 -4709 0
-4716 4710 0
4716 -4710 0
-4717 1647 0
4717 -1647 0
-4718 4717 1651 0
4718 -4717 0
4718 -1651 0
-4719 4717 0
-4719 1651 0
4719 -4717 -1651 0
-4720 4718 1655 0
4720 -4718 0
4720 -1655 0
-4721 4719 4718 0
-4721 4719 1655 0
4721 -4719 0
4721 -4718 -1655 0
-4722 4719 0
-4722 1655 0
4722 -4719 -1655 0
-4723 1648 0
4723 -1648 0
-4724 4723 1652 0
4724 -4723 0
4724 -1652 0
-4725 4723 0
-4725 1652 0
4725 -4723 -1652 0
-4726 4724 1656 0
4726 -4724 0
4726 -1656 0
-4727 4725 4724 0
-4727 4725 1656 0
4727 -4725 0
4727 -4724 -1656 0
-4728 4725 0
-4728 1656 0
4728 -4725 -1656 0
-4726 4720 0
4726 -4720 0
-4727 4721 0
4727 -4721 0
-4728 4722 0
4728 -4722 0
-4729 1659 0
4729 -1659 0
-4730 4729 1663 0
4730 -4729 0
4730 -1663 0
-4731 4729 0
-4731 1663 0
4731 -4729 -1663 0
-4732 4730 1667 0
4732 -4730 0
4732 -1667 0
-4733 4731 4730 0
-4733 4731 1667 0
4733 -4731 0
4733 -4730 -1667 0
-4734 4731 0
-4734 1667 0
4734 -4731 -1667 0
-4735 1660 0
4735 -1660 0
-4736 4735 1664 0
4736 -4735 0
4736 -1664 0
-4737 4735 0
-4737 1664 0
4737 -4735 -1664 0
-4738 4736 1668 0
4738 -4736 0
4738 -1668 0
-4739 4737 4736 0
-4739 4737 1668 0
4739 -4737 0
4739 -4736 -1668 0
-4740 4737 0
-4740 1668 0
4740 -4737 -1668 0
-4738 4732 0
4738 -4732 0
-4739 4733 0
4739 -4733 0
-4740 4734 0
4740 -4734 0
-4741 1671 0
4741 -1671 0
-4742 4741 1675 0
4742 -4741 0
4742 -1675 0
-4743 4741 0
-4743 1675 0
4743 -4741 -1675 0
-4744 4742 1679 0
4744 -4742 0
4744 -1679 0
-4745 4743 4742 0
-4745 4743 1679 0
4745 -4743 0
4745 -4742 -1679 0
-4746 4743 0
-4746 1679 0
4746 -4743 -1679 0
-4747 1672 0
4747 -1672 0
-4748 4747 1676 0
4748 -4747 0
4748 -1676 0
-4749 4747 0
-4749 1676 0
4749 -4747 -1676 0
-4750 4748 1680 0
4750 -4748 0
4750 -1680 0
-4751 4749 4748 0
-4751 4749 1680 0
4751 -4749 0
4751 -4748 -1680 0
-4752 4749 0
-4752 1680 0
4752 -4749 -1680 0
-4750 4744 0
4750 -4744 0
-4751 4745 0
4751 -4745 0
-4752 4746 0
4752 -4746 0
-4753 1683 0
4753 -1683 0
-4754 4753 1687 0
4754 -4753 0
4754 -1687 0
-4755 4753 0
-4755 1687 0
4755 -4753 -1687 0
-4756 4754 1691 0
4756 -4754 0
4756 -1691 0
-4757 4755 4754 0
-4757 4755 1691 0
4757 -4755 0
4757 -4754 -1691 0
-4758 4755 0
-4758 1691 0
4758 -4755 -1691 0
-4759 1684 0
4759 -1684 0
-4760 4759 1688 0
4760 -4759 0
4760 -1688 0
-4761 4759 0
-4761 1688 0
4761 -4759 -1688 0
-4762 4760 1692 0
4762 -4760 0
4762 -1692 0
-4763 4761 4760 0
-4763 4761 1692 0
4763 -4761 0
4763 -4760 -1692 0
-4764 4761 0
-4764 1692 0
4764 -4761 -1692 0
-4762 4756 0
4762 -4756 0
-4763 4757 0
4763 -4757 0
-4764 4758 0
4764 -4758 0
-4765 1695 0
4765 -1695 0
-4766 4765 1699 0
4766 -4765 0
4766 -1699 0
-4767 4765 0
-4767 1699 0
4767 -4765 -1699 0
-4768 4766 1703 0
4768 -4766 0
4768 -1703 0
-4769 4767 4766 0
-4769 4767 1703 0
4769 -4767 0
4769 -4766 -1703 0
-4770 4767 0
-4770 1703 0
4770 -4767 -1703 0
-4771 1696 0
4771 -1696 0
-4772 4771 1700 0
4772 -4771 0
4772 -1700 0
-4773 4771 0
-4773 1700 0
4773 -4771 -1700 0
-4774 4772 1704 0
4774 -4772 0
4774 -1704 0
-4775 4773 4772 0
-4775 4773 1704 0
4775 -4773 0
4775 -4772 -1704 0
-4776 4773 0
-4776 1704 0
4776 -4773 -1704 0
-4774 4768 0
4774 -4768 0
-4775 4769 0
4775 -4769 0
-4776 4770 0
4776 -4770 0
-4777 1707 0
4777 -1707 0
-4778 4777 1711 0
4778 -4777 0
4778 -1711 0
-4779 4777 0
-4779 1711 0
4779 -4777 -1711 0
-4780 4778 1715 0
4780 -4778 0
4780 -1715 0
-4781 4779 4778 0
-4781 4779 1715 0
4781 -4779 0
4781 -4778 -1715 0
-4782 4779 0
-4782 1715 0
4782 -4779 -1715 0
-4783 1708 0
4783 -1708 0
-4784 4783 1712 0
4784 -4783 0
4784 -1712 0
-4785 4783 0
-4785 1712 0
4785 -4783 -1712 0
-4786 4784 1716 0
4786 -4784 0
4786 -1716 0
-4787 4785 4784 0
-4787 4785 1716 0
4787 -4785 0
4787 -4784 -1716 0
-4788 4785 0
-4788 1716 0
4788 -4785 -1716 0
-4786 4780 0
4786 -4780 0
-4787 4781 0
4787 -4781 0
-4788 4782 0
4788 -4782 0
-4789 1719 0
4789 -1719 0
-4790 4789 1723 0
4790 -4789 0
4790 -1723 0
-4791 4789 0
-4791 1723 0
4791 -4789 -1723 0
-4792 4790 1727 0
4792 -4790 0
4792 -1727 0
-4793 4791 4790 0
-4793 4791 1727 0
4793 -4791 0
4793 -4790 -1727 0
-4794 4791 0
-4794 1727 0
4794 -4791 -1727 0
-4795 1720 0
4795 -1720 0
-4796 4795 1724 0
4796 -4795 0
4796 -1724 0
-4797 4795 0
-4797 1724 0
4797 -4795 -1724 0
-4798 4796 1728 0
4798 -4796 0
4798 -1728 0
-4799 4797 4796 0
-4799 4797 1728 0
4799 -4797 0
4799 -4796 -1728 0
-4800 4797 0
-4800 1728 0
4800 -4797 -1728 0
-4798 4792 0
4798 -4792 0
-4799 4793 0
4799 -4793 0
-4800 4794 0
4800 -4794 0
-4801 1731 0
4801 -1731 0
-4802 4801 1735 0
4802 -4801 0
4802 -1735 0
-4803 4801 0
-4803 1735 0
4803 -4801 -1735 0
-4804 4802 1739 0
4804 -4802 0
4804 -1739 0
-4805 4803 4802 0
-4805 4803 1739 0
4805 -4803 0
4805 -4802 -1739 0
-4806 4803 0
-4806 1739 0
4806 -4803 -1739 0
-4807 1732 0
4807 -1732 0
-4808 4807 1736 0
4808 -4807 0
4808 -1736 0
-4809 4807 0
-4809 1736 0
4809 -4807 -1736 0
-4810 4808 1740 0
4810 -4808 0
4810 -1740 0
-4811 4809 4808 0
-4811 4809 1740 0
4811 -4809 0
4811 -4808 -1740 0
-4812 4809 0
-4812 1740 0
4812 -4809 -1740 0
-4810 4804 0
4810 -4804 0
-4811 4805 0
4811 -4805 0
-4812 4806 0
4812 -4806 0
-4813 1743 0
4813 -1743 0
-4814 4813 1747 0
4814 -4813 0
4814 -1747 0
-4815 4813 0
-4815 1747 0
4815 -4813 -1747 0
-4816 4814 1751 0
4816 -4814 0
4816 -1751 0
-4817 4815 4814 0
-4817 4815 1751 0
4817 -4815 0
4817 -4814 -1751 0
-4818 4815 0
-4818 1751 0
4818 -4815 -1751 0
-4819 1744 0
4819 -1744 0
-4820 4819 1748 0
4820 -4819 0
4820 -1748 0
-4821 4819 0
-4821 1748 0
4821 -4819 -1748 0
-4822 4820 1752 0
4822 -4820 0
4822 -1752 0
-4823 4821 4820 0
-4823 4821 1752 0
4823 -4821 0
4823 -4820 -1752 0
-4824 4821 0
-4824 1752 0
4824 -4821 -1752 0
-4822 4816 0
4822 -4816 0
-4823 4817 0
4823 -4817 0
-4824 4818 0
4824 -4818 0
-4825 1755 0
4825 -1755 0
-4826 4825 1759 0
4826 -4825 0
4826 -1759 0
-4827 4825 0
-4827 1759 0
4827 -4825 -1759 0
-4828 4826 1763 0
4828 -4826 0
4828 -1763 0
-4829 4827 4826 0
-4829 4827 1763 0
4829 -4827 0
4829 -4826 -1763 0
-4830 4827 0
-4830 1763 0
4830 -4827 -1763 0
-4831 1756 0
4831 -1756 0
-4832 4831 1760 0
4832 -4831 0
4832 -1760 0
-4833 4831 0
-4833 1760 0
4833 -4831 -1760 0
-4834 4832 1764 0
4834 -4832 0
4834 -1764 0
-4835 4833 4832 0
-4835 4833 1764 0
4835 -4833 0
4835 -4832 -1764 0
-4836 4833 0
-4836 1764 0
4836 -4833 -1764 0
-4834 4828 0
4834 -4828 0
-4835 4829 0
4835 -4829 0
-4836 4830 0
4836 -4830 0
-4837 1767 0
4837 -1767 0
-4838 4837 1771 0
4838 -4837 0
4838 -1771 0
-4839 4837 0
-4839 1771 0
4839 -4837 -1771 0
-4840 4838 1775 0
4840 -4838 0
4840 -1775 0
-4841 4839 4838 0
-4841 4839 1775 0
4841 -4839 0
4841 -4838 -1775 0
-4842 4839 0
-4842 1775 0
4842 -4839 -1775 0
-4843 1768 0
4843 -1768 0
-4844 4843 1772 0
4844 -4843 0
4844 -1772 0
-4845 4843 0
-4845 1772 0
4845 -4843 -1772 0
-4846 4844 1776 0
4846 -4844 0
4846 -1776 0
-4847 4845 4844 0
-4847 4845 1776 0
4847 -4845 0
4847 -4844 -1776 0
-4848 4845 0
-4848 1776 0
4848 -4845 -1776 0
-4846 4840 0
4846 -4840 0
-4847 4841 0
4847 -4841 0
-4848 4842 0
4848 -4842 0
-4849 1779 0
4849 -1779 0
-4850 4849 1783 0
4850 -4849 0
4850 -1783 0
-4851 4849 0
-4851 1783 0
4851 -4849 -1783 0
-4852 4850 1787 0
4852 -4850 0
4852 -1787 0
-4853 4851 4850 0
-4853 4851 1787 0
4853 -4851 0
4853 -4850 -1787 0
-4854 4851 0
-4854 1787 0
4854 -4851 -1787 0
-4855 1780 0
4855 -1780 0
-4856 4855 1784 0
4856 -4855 0
4856 -1784 0
-4857 4855 0
-4857 1784 0
4857 -4855 -1784 0
-4858 4856 1788 0
4858 -4856 0
4858 -1788 0
-4859 4857 4856 0
-4859 4857 1788 0
4859 -4857 0
4859 -4856 -1788 0
-4860 4857 0
-4860 1788 0
4860 -4857 -1788 0
-4858 4852 0
4858 -4852 0
-4859 4853 0
4859 -4853 0
-4860 4854 0
4860 -4854 0
-4861 1791 0
4861 -1791 0
-4862 4861 1795 0
4862 -4861 0
4862 -1795 0
-4863 4861 0
-4863 1795 0
4863 -4861 -1795 0
-4864 4862 1799 0
4864 -4862 0
4864 -1799 0
-4865 4863 4862 0
-4865 4863 1799 0
4865 -4863 0
4865 -4862 -1799 0
-4866 4863 0
-4866 1799 0
4866 -4863 -1799 0
-4867 1792 0
4867 -1792 0
-4868 4867 1796 0
4868 -4867 0
4868 -1796 0
-4869 4867 0
-4869 1796 0
4869 -4867 -1796 0
-4870 4868 1800 0
4870 -4868 0
4870 -1800 0
-4871 4869 4868 0
-4871 4869 1800 0
4871 -4869 0
4871 -4868 -1800 0
-4872 4869 0
-4872 1800 0
4872 -4869 -1800 0
-4870 4864 0
4870 -4864 0
-4871 4865 0
4871 -4865 0
-4872 4866 0
4872 -4866 0
-4873 1803 0
4873 -1803 0
-4874 4873 1807 0
4874 -4873 0
4874 -1807 0
-4875 4873 0
-4875 1807 0
4875 -4873 -1807 0
-4876 4874 1811 0
4876 -4874 0
4876 -1811 0
-4877 4875 4874 0
-4877 4875 1811 0
4877 -4875 0
4877 -4874 -1811 0
-4878 4875 0
-4878 1811 0
4878 -4875 -1811 0
-4879 1804 0
4879 -1804 0
-4880 4879 1808 0
4880 -4879 0
4880 -1808 0
-4881 4879 0
-4881 1808 0
4881 -4879 -1808 0
-4882 4880 1812 0
4882 -4880 0
4882 -1812 0
-4883 4881 4880 0
-4883 4881 1812 0
4883 -4881 0
4883 -4880 -1812 0
-4884 4881 0
-4884 1812 0
4884 -4881 -1812 0
-4882 4876 0
4882 -4876 0
-4883 4877 0
4883 -4877 0
-4884 4878 0
4884 -4878 0
-4885 1815 0
4885 -1815 0
-4886 4885 1819 0
4886 -4885 0
4886 -1819 0
-4887 4885 0
-4887 1819 0
4887 -4885 -1819 0
-4888 4886 1823 0
4888 -4886 0
4888 -1823 0
-4889 4887 4886 0
-4889 4887 1823 0
4889 -4887 0
4889 -4886 -1823 0
-4890 4887 0
-4890 1823 0
4890 -4887 -1823 0
-4891 1816 0
4891 -1816 0
-4892 4891 1820 0
4892 -4891 0
4892 -1820 0
-4893 4891 0
-4893 1820 0
4893 -4891 -1820 0
-4894 4892 1824 0
4894 -4892 0
4894 -1824 0
-4895 4893 4892 0
-4895 4893 1824 0
4895 -4893 0
4895 -4892 -1824 0
-4896 4893 0
-4896 1824 0
4896 -4893 -1824 0
-4894 4888 0
4894 -4888 0
-4895 4889 0
4895 -4889 0
-4896 4890 0
4896 -4890 0
-4897 1827 0
4897 -1827 0
-4898 4897 1831 0
4898 -4897 0
4898 -1831 0
-4899 4897 0
-4899 1831 0
4899 -4897 -1831 0
-4900 4898 1835 0
4900 -4898 0
4900 -1835 0
-4901 4899 4898 0
-4901 4899 1835 0
4901 -4899 0
4901 -4898 -1835 0
-4902 4899 0
-4902 1835 0
4902 -4899 -1835 0
-4903 1828 0
4903 -1828 0
-4904 4903 1832 0
4904 -4903 0
4904 -1832 0
-4905 4903 0
-4905 1832 0
4905 -4903 -1832 0
-4906 4904 1836 0
4906 -4904 0
4906 -1836 0
-4907 4905 4904 0
-4907 4905 1836 0
4907 -4905 0
4907 -4904 -1836 0
-4908 4905 0
-4908 1836 0
4908 -4905 -1836 0
-4906 4900 0
4906 -4900 0
-4907 4901 0
4907 -4901 0
-4908 4902 0
4908 -4902 0
-4909 1839 0
4909 -1839 0
-4910 4909 1843 0
4910 -4909 0
4910 -1843 0
-4911 4909 0
-4911 1843 0
4911 -4909 -1843 0
-4912 4910 1847 0
4912 -4910 0
4912 -1847 0
-4913 4911 4910 0
-4913 4911 1847 0
4913 -4911 0
4913 -4910 -1847 0
-4914 4911 0
-4914 1847 0
4914 -4911 -1847 0
-4915 1840 0
4915 -1840 0
-4916 4915 1844 0
4916 -4915 0
4916 -1844 0
-4917 4915 0
-4917 1844 0
4917 -4915 -1844 0
-4918 4916 1848 0
4918 -4916 0
4918 -1848 0
-4919 4917 4916 0
-4919 4917 1848 0
4919 -4917 0
4919 -4916 -1848 0
-4920 4917 0
-4920 1848 0
4920 -4917 -1848 0
-4918 4912 0
4918 -4912 0
-4919 4913 0
4919 -4913 0
-4920 4914 0
4920 -4914 0
-4921 1851 0
4921 -1851 0
-4922 4921 1855 0
4922 -4921 0
4922 -1855 0
-4923 4921 0
-4923 1855 0
4923 -4921 -1855 0
-4924 4922 1859 0
4924 -4922 0
4924 -1859 0
-4925 4923 4922 0
-4925 4923 1859 0
4925 -4923 0
4925 -4922 -1859 0
-4926 4923 0
-4926 1859 0
4926 -4923 -1859 0
-4927 1852 0
4927 -1852 0
-4928 4927 1856 0
4928 -4927 0
4928 -1856 0
-4929 4927 0
-4929 1856 0
4929 -4927 -1856 0
-4930 4928 1860 0
4930 -4928 0
4930 -1860 0
-4931 4929 4928 0
-4931 4929 1860 0
4931 -4929 0
4931 -4928 -1860 0
-4932 4929 0
-4932 1860 0
4932 -4929 -1860 0
-4930 4924 0
4930 -4924 0
-4931 4925 0
4931 -4925 0
-4932 4926 0
4932 -4926 0
-4933 1863 0
4933 -1863 0
-4934 4933 1867 0
4934 -4933 0
4934 -1867 0
-4935 4933 0
-4935 1867 0
4935 -4933 -1867 0
-4936 4934 1871 0
4936 -4934 0
4936 -1871 0
-4937 4935 4934 0
-4937 4935 1871 0
4937 -4935 0
4937 -4934 -1871 0
-4938 4935 0
-4938 1871 0
4938 -4935 -1871 0
-4939 1864 0
4939 -1864 0
-4940 4939 1868 0
4940 -4939 0
4940 -1868 0
-4941 4939 0
-4941 1868 0
4941 -4939 -1868 0
-4942 4940 1872 0
4942 -4940 0
4942 -1872 0
-4943 4941 4940 0
-4943 4941 1872 0
4943 -4941 0
4943 -4940 -1872 0
-4944 4941 0
-4944 1872 0
4944 -4941 -1872 0
-4942 4936 0
4942 -4936 0
-4943 4937 0
4943 -4937 0
-4944 4938 0
4944 -4938 0
-4945 1875 0
4945 -1875 0
-4946 4945 1879 0
4946 -4945 0
4946 -1879 0
-4947 4945 0
-4947 1879 0
4947 -4945 -1879 0
-4948 4946 1883 0
4948 -4946 0
4948 -1883 0
-4949 4947 4946 0
-4949 4947 1883 0
4949 -4947 0
4949 -4946 -1883 0
-4950 4947 0
-4950 1883 0
4950 -4947 -1883 0
-4951 1876 0
4951 -1876 0
-4952 4951 1880 0
4952 -4951 0
4952 -1880 0
-4953 4951 0
-4953 1880 0
4953 -4951 -1880 0
-4954 4952 1884 0
4954 -4952 0
4954 -1884 0
-4955 4953 4952 0
-4955 4953 1884 0
4955 -4953 0
4955 -4952 -1884 0
-4956 4953 0
-4956 1884 0
4956 -4953 -1884 0
-4954 4948 0
4954 -4948 0
-4955 4949 0
4955 -4949 0
-4956 4950 0
4956 -4950 0
-4957 1887 0
4957 -1887 0
-4958 4957 1891 0
4958 -4957 0
4958 -1891 0
-4959 4957 0
-4959 1891 0
4959 -4957 -1891 0
-4960 4958 1895 0
4960 -4958 0
4960 -1895 0
-4961 4959 4958 0
-4961 4959 1895 0
4961 -4959 0
4961 -4958 -1895 0
-4962 4959 0
-4962 1895 0
4962 -4959 -1895 0
-4963 1888 0
4963 -1888 0
-4964 4963 1892 0
4964 -4963 0
4964 -1892 0
-4965 4963 0
-4965 1892 0
4965 -4963 -1892 0
-4966 4964 1896 0
4966 -4964 0
4966 -1896 0
-4967 4965 4964 0
-4967 4965 1896 0
4967 -4965 0
4967 -4964 -1896 0
-4968 4965 0
-4968 1896 0
4968 -4965 -1896 0
-4966 4960 0
4966 -4960 0
-4967 4961 0
4967 -4961 0
-4968 4962 0
4968 -4962 0
-4969 1899 0
4969 -1899 0
-4970 4969 1903 0
4970 -4969 0
4970 -1903 0
-4971 4969 0
-4971 1903 0
4971 -4969 -1903 0
-4972 4970 1907 0
4972 -4970 0
4972 -1907 0
-4973 4971 4970 0
-4973 4971 1907 0
4973 -4971 0
4973 -4970 -1907 0
-4974 4971 0
-4974 1907 0
4974 -4971 -1907 0
-4975 1900 0
4975 -1900 0
-4976 4975 1904 0
4976 -4975 0
4976 -1904 0
-4977 4975 0
-4977 1904 0
4977 -4975 -1904 0
-4978 4976 1908 0
4978 -4976 0
4978 -1908 0
-4979 4977 4976 0
-4979 4977 1908 0
4979 -4977 0
4979 -4976 -1908 0
-4980 4977 0
-4980 1908 0
4980 -4977 -1908 0
-4978 4972 0
4978 -4972 0
-4979 4973 0
4979 -4973 0
-4980 4974 0
4980 -4974 0
-4981 1911 0
4981 -1911 0
-4982 4981 1915 0
4982 -4981 0
4982 -1915 0
-4983 4981 0
-4983 1915 0
4983 -4981 -1915 0
-4984 4982 1919 0
4984 -4982 0
4984 -1919 0
-4985 4983 4982 0
-4985 4983 1919 0
4985 -4983 0
4985 -4982 -1919 0
-4986 4983 0
-4986 1919 0
4986 -4983 -1919 0
-4987 1912 0
4987 -1912 0
-4988 4987 1916 0
4988 -4987 0
4988 -1916 0
-4989 4987 0
-4989 1916 0
4989 -4987 -1916 0
-4990 4988 1920 0
4990 -4988 0
4990 -1920 0
-4991 4989 4988 0
-4991 4989 1920 0
4991 -4989 0
4991 -4988 -1920 0
-4992 4989 0
-4992 1920 0
4992 -4989 -1920 0
-4990 4984 0
4990 -4984 0
-4991 4985 0
4991 -4985 0
-4992 4986 0
4992 -4986 0
-4993 1923 0
4993 -1923 0
-4994 4993 1927 0
4994 -4993 0
4994 -1927 0
-4995 4993 0
-4995 1927 0
4995 -4993 -1927 0
-4996 4994 1931 0
4996 -4994 0
4996 -1931 0
-4997 4995 4994 0
-4997 4995 1931 0
4997 -4995 0
4997 -4994 -1931 0
-4998 4995 0
-4998 1931 0
4998 -4995 -1931 0
-4999 1924 0
4999 -1924 0
-5000 4999 1928 0
5000 -4999 0
5000 -1928 0
-5001 4999 0
-5001 1928 0
5001 -4999 -1928 0
-5002 5000 1932 0
5002 -5000 0
5002 -1932 0
-5003 5001 5000 0
-5003 5001 1932 0
5003 -5001 0
5003 -5000 -1932 0
-5004 5001 0
-5004 1932 0
5004 -5001 -1932 0
-5002 4996 0
5002 -4996 0
-5003 4997 0
5003 -4997 0
-5004 4998 0
5004 -4998 0
-5005 1935 0
5005 -1935 0
-5006 5005 1939 0
5006 -5005 0
5006 -1939 0
-5007 5005 0
-5007 1939 0
5007 -5005 -1939 0
-5008 5006 1943 0
5008 -5006 0
5008 -1943 0
-5009 5007 5006 0
-5009 5007 1943 0
5009 -5007 0
5009 -5006 -1943 0
-5010 5007 0
-5010 1943 0
5010 -5007 -1943 0
-5011 1936 0
5011 -1936 0
-5012 5011 1940 0
5012 -5011 0
5012 -1940 0
-5013 5011 0
-5013 1940 0
5013 -5011 -1940 0
-5014 5012 1944 0
5014 -5012 0
5014 -1944 0
-5015 5013 5012 0
-5015 5013 1944 0
5015 -5013 0
5015 -5012 -1944 0
-5016 5013 0
-5016 1944 0
5016 -5013 -1944 0
-5014 5008 0
5014 -5008 0
-5015 5009 0
5015 -5009 0
-5016 5010 0
5016 -5010 0
-5017 1947 0
5017 -1947 0
-5018 5017 1951 0
5018 -5017 0
5018 -1951 0
-5019 5017 0
-5019 1951 0
5019 -5017 -1951 0
-5020 5018 1955 0
5020 -5018 0
5020 -1955 0
-5021 5019 5018 0
-5021 5019 1955 0
5021 -5019 0
5021 -5018 -1955 0
-5022 5019 0
-5022 1955 0
5022 -5019 -1955 0
-5023 1948 0
5023 -1948 0
-5024 5023 1952 0
5024 -5023 0
5024 -1952 0
-5025 5023 0
-5025 1952 0
5025 -5023 -1952 0
-5026 5024 1956 0
5026 -5024 0
5026 -1956 0
-5027 5025 5024 0
-5027 5025 1956 0
5027 -5025 0
5027 -5024 -1956 0
-5028 5025 0
-5028 1956 0
5028 -5025 -1956 0
-5026 5020 0
5026 -5020 0
-5027 5021 0
5027 -5021 0
-5028 5022 0
5028 -5022 0
-5029 1959 0
5029 -1959 0
-5030 5029 1963 0
5030 -5029 0
5030 -1963 0
-5031 5029 0
-5031 1963 0
5031 -5029 -1963 0
-5032 5030 1967 0
5032 -5030 0
5032 -1967 0
-5033 5031 5030 0
-5033 5031 1967 0
5033 -5031 0
5033 -5030 -1967 0
-5034 5031 0
-5034 1967 0
5034 -5031 -1967 0
-5035 1960 0
5035 -1960 0
-5036 5035 1964 0
5036 -5035 0
5036 -1964 0
-5037 5035 0
-5037 1964 0
5037 -5035 -1964 0
-5038 5036 1968 0
5038 -5036 0
5038 -1968 0
-5039 5037 5036 0
-5039 5037 1968 0
5039 -5037 0
5039 -5036 -1968 0
-5040 5037 0
-5040 1968 0
5040 -5037 -1968 0
-5038 5032 0
5038 -5032 0
-5039 5033 0
5039 -5033 0
-5040 5034 0
5040 -5034 0
-5041 1971 0
5041 -1971 0
-5042 5041 1975 0
5042 -5041 0
5042 -1975 0
-5043 5041 0
-5043 1975 0
5043 -5041 -1975 0
-5044 5042 1979 0
5044 -5042 0
5044 -1979 0
-5045 5043 5042 0
-5045 5043 1979 0
5045 -5043 0
5045 -5042 -1979 0
-5046 5043 0
-5046 1979 0
5046 -5043 -1979 0
-5047 1972 0
5047 -1972 0
-5048 5047 1976 0
5048 -5047 0
5048 -1976 0
-5049 5047 0
-5049 1976 0
5049 -5047 -1976 0
-5050 5048 1980 0
5050 -5048 0
5050 -1980 0
-5051 5049 5048 0
-5051 5049 1980 0
5051 -5049 0
5051 -5048 -1980 0
-5052 5049 0
-5052 1980 0
5052 -5049 -1980 0
-5050 5044 0
5050 -5044 0
-5051 5045 0
5051 -5045 0
-5052 5046 0
5052 -5046 0
-5053 1983 0
5053 -1983 0
-5054 5053 1987 0
5054 -5053 0
5054 -1987 0
-5055 5053 0
-5055 1987 0
5055 -5053 -1987 0
-5056 5054 1991 0
5056 -5054 0
5056 -1991 0
-5057 5055 5054 0
-5057 5055 1991 0
5057 -5055 0
5057 -5054 -1991 0
-5058 5055 0
-5058 1991 0
5058 -5055 -1991 0
-5059 1984 0
5059 -1984 0
-5060 5059 1988 0
5060 -5059 0
5060 -1988 0
-5061 5059 0
-5061 1988 0
5061 -5059 -1988 0
-5062 5060 1992 0
5062 -5060 0
5062 -1992 0
-5063 5061 5060 0
-5063 5061 1992 0
5063 -5061 0
5063 -5060 -1992 0
-5064 5061 0
-5064 1992 0
5064 -5061 -1992 0
-5062 5056 0
5062 -5056 0
-5063 5057 0
5063 -5057 0
-5064 5058 0
5064 -5058 0
-5065 1995 0
5065 -1995 0
-5066 5065 1999 0
5066 -5065 0
5066 -1999 0
-5067 5065 0
-5067 1999 0
5067 -5065 -1999 0
-5068 5066 2003 0
5068 -5066 0
5068 -2003 0
-5069 5067 5066 0
-5069 5067 2003 0
5069 -5067 0
5069 -5066 -2003 0
-5070 5067 0
-5070 2003 0
5070 -5067 -2003 0
-5071 1996 0
5071 -1996 0
-5072 5071 2000 0
5072 -5071 0
5072 -2000 0
-5073 5071 0
-5073 2000 0
5073 -5071 -2000 0
-5074 5072 2004 0
5074 -5072 0
5074 -2004 0
-5075 5073 5072 0
-5075 5073 2004 0
5075 -5073 0
5075 -5072 -2004 0
-5076 5073 0
-5076 2004 0
5076 -5073 -2004 0
-5074 5068 0
5074 -5068 0
-5075 5069 0
5075 -5069 0
-5076 5070 0
5076 -5070 0
-5077 2007 0
5077 -2007 0
-5078 5077 2011 0
5078 -5077 0
5078 -2011 0
-5079 5077 0
-5079 2011 0
5079 -5077 -2011 0
-5080 5078 2015 0
5080 -5078 0
5080 -2015 0
-5081 5079 5078 0
-5081 5079 2015 0
5081 -5079 0
5081 -5078 -2015 0
-5082 5079 0
-5082 2015 0
5082 -5079 -2015 0
-5083 2008 0
5083 -2008 0
-5084 5083 2012 0
5084 -5083 0
5084 -2012 0
-5085 5083 0
-5085 2012 0
5085 -5083 -2012 0
-5086 5084 2016 0
5086 -5084 0
5086 -2016 0
-5087 5085 5084 0
-5087 5085 2016 0
5087 -5085 0
5087 -5084 -2016 0
-5088 5085 0
-5088 2016 0
5088 -5085 -2016 0
-5086 5080 0
5086 -5080 0
-5087 5081 0
5087 -5081 0
-5088 5082 0
5088 -5082 0
-5089 2019 0
5089 -2019 0
-5090 5089 2023 0
5090 -5089 0
5090 -2023 0
-5091 5089 0
-5091 2023 0
5091 -5089 -2023 0
-5092 5090 2027 0
5092 -5090 0
5092 -2027 0
-5093 5091 5090 0
-5093 5091 2027 0
5093 -5091 0
5093 -5090 -2027 0
-5094 5091 0
-5094 2027 0
5094 -5091 -2027 0
-5095 2020 0
5095 -2020 0
-5096 5095 2024 0
5096 -5095 0
5096 -2024 0
-5097 5095 0
-5097 2024 0
5097 -5095 -2024 0
-5098 5096 2028 0
5098 -5096 0
5098 -2028 0
-5099 5097 5096 0
-5099 5097 2028 0
5099 -5097 0
5099 -5096 -2028 0
-5100 5097 0
-5100 2028 0
5100 -5097 -2028 0
-5098 5092 0
5098 -5092 0
-5099 5093 0
5099 -5093 0
-5100 5094 0
5100 -5094 0
-5101 2031 0
5101 -2031 0
-5102 5101 2035 0
5102 -5101 0
5102 -2035 0
-5103 5101 0
-5103 2035 0
5103 -5101 -2035 0
-5104 5102 2039 0
5104 -5102 0
5104 -2039 0
-5105 5103 5102 0
-5105 5103 2039 0
5105 -5103 0
5105 -5102 -2039 0
-5106 5103 0
-5106 2039 0
5106 -5103 -2039 0
-5107 2032 0
5107 -2032 0
-5108 5107 2036 0
5108 -5107 0
5108 -2036 0
-5109 5107 0
-5109 2036 0
5109 -5107 -2036 0
-5110 5108 2040 0
5110 -5108 0
5110 -2040 0
-5111 5109 5108 0
-5111 5109 2040 0
5111 -5109 0
5111 -5108 -2040 0
-5112 5109 0
-5112 2040 0
5112 -5109 -2040 0
-5110 5104 0
5110 -5104 0
-5111 5105 0
5111 -5105 0
-5112 5106 0
5112 -5106 0
-5113 2043 0
5113 -2043 0
-5114 5113 2047 0
5114 -5113 0
5114 -2047 0
-5115 5113 0
-5115 2047 0
5115 -5113 -2047 0
-5116 5114 2051 0
5116 -5114 0
5116 -2051 0
-5117 5115 5114 0
-5117 5115 2051 0
5117 -5115 0
5117 -5114 -2051 0
-5118 5115 0
-5118 2051 0
5118 -5115 -2051 0
-5119 2044 0
5119 -2044 0
-5120 5119 2048 0
5120 -5119 0
5120 -2048 0
-5121 5119 0
-5121 2048 0
5121 -5119 -2048 0
-5122 5120 2052 0
5122 -5120 0
5122 -2052 0
-5123 5121 5120 0
-5123 5121 2052 0
5123 -5121 0
5123 -5120 -2052 0
-5124 5121 0
-5124 2052 0
5124 -5121 -2052 0
-5122 5116 0
5122 -5116 0
-5123 5117 0
5123 -5117 0
-5124 5118 0
5124 -5118 0
-5125 2055 0
5125 -2055 0
-5126 5125 2059 0
5126 -5125 0
5126 -2059 0
-5127 5125 0
-5127 2059 0
5127 -5125 -2059 0
-5128 5126 2063 0
5128 -5126 0
5128 -2063 0
-5129 5127 5126 0
-5129 5127 2063 0
5129 -5127 0
5129 -5126 -2063 0
-5130 5127 0
-5130 2063 0
5130 -5127 -2063 0
-5131 2056 0
5131 -2056 0
-5132 5131 2060 0
5132 -5131 0
5132 -2060 0
-5133 5131 0
-5133 2060 0
5133 -5131 -2060 0
-5134 5132 2064 0
5134 -5132 0
5134 -2064 0
-5135 5133 5132 0
-5135 5133 2064 0
5135 -5133 0
5135 -5132 -2064 0
-5136 5133 0
-5136 2064 0
5136 -5133 -2064 0
-5134 5128 0
5134 -5128 0
-5135 5129 0
5135 -5129 0
-5136 5130 0
5136 -5130 0
-5137 2067 0
5137 -2067 0
-5138 5137 2071 0
5138 -5137 0
5138 -2071 0
-5139 5137 0
-5139 2071 0
5139 -5137 -2071 0
-5140 5138 2075 0
5140 -5138 0
5140 -2075 0
-5141 5139 5138 0
-5141 5139 2075 0
5141 -5139 0
5141 -5138 -2075 0
-5142 5139 0
-5142 2075 0
5142 -5139 -2075 0
-5143 2068 0
5143 -2068 0
-5144 5143 2072 0
5144 -5143 0
5144 -2072 0
-5145 5143 0
-5145 2072 0
5145 -5143 -2072 0
-5146 5144 2076 0
5146 -5144 0
5146 -2076 0
-5147 5145 5144 0
-5147 5145 2076 0
5147 -5145 0
5147 -5144 -2076 0
-5148 5145 0
-5148 2076 0
5148 -5145 -2076 0
-5146 5140 0
5146 -5140 0
-5147 5141 0
5147 -5141 0
-5148 5142 0
5148 -5142 0
-5149 2079 0
5149 -2079 0
-5150 5149 2083 0
5150 -5149 0
5150 -2083 0
-5151 5149 0
-5151 2083 0
5151 -5149 -2083 0
-5152 5150 2087 0
5152 -5150 0
5152 -2087 0
-5153 5151 5150 0
-5153 5151 2087 0
5153 -5151 0
5153 -5150 -2087 0
-5154 5151 0
-5154 2087 0
5154 -5151 -2087 0
-5155 2080 0
5155 -2080 0
-5156 5155 2084 0
5156 -5155 0
5156 -2084 0
-5157 5155 0
-5157 2084 0
5157 -5155 -2084 0
-5158 5156 2088 0
5158 -5156 0
5158 -2088 0
-5159 5157 5156 0
-5159 5157 2088 0
5159 -5157 0
5159 -5156 -2088 0
-5160 5157 0
-5160 2088 0
5160 -5157 -2088 0
-5158 5152 0
5158 -5152 0
-5159 5153 0
5159 -5153 0
-5160 5154 0
5160 -5154 0
-5161 2091 0
5161 -2091 0
-5162 5161 2095 0
5162 -5161 0
5162 -2095 0
-5163 5161 0
-5163 2095 0
5163 -5161 -2095 0
-5164 5162 2099 0
5164 -5162 0
5164 -2099 0
-5165 5163 5162 0
-5165 5163 2099 0
5165 -5163 0
5165 -5162 -2099 0
-5166 5163 0
-5166 2099 0
5166 -5163 -2099 0
-5167 2092 0
5167 -2092 0
-5168 5167 2096 0
5168 -5167 0
5168 -2096 0
-5169 5167 0
-5169 2096 0
5169 -5167 -2096 0
-5170 5168 2100 0
5170 -5168 0
5170 -2100 0
-5171 5169 5168 0
-5171 5169 2100 0
5171 -5169 0
5171 -5168 -2100 0
-5172 5169 0
-5172 2100 0
5172 -5169 -2100 0
-5170 5164 0
5170 -5164 0
-5171 5165 0
5171 -5165 0
-5172 5166 0
5172 -5166 0
-5173 2103 0
5173 -2103 0
-5174 5173 2107 0
5174 -5173 0
5174 -2107 0
-5175 5173 0
-5175 2107 0
5175 -5173 -2107 0
-5176 5174 2111 0
5176 -5174 0
5176 -2111 0
-5177 5175 5174 0
-5177 5175 2111 0
5177 -5175 0
5177 -5174 -2111 0
-5178 5175 0
-5178 2111 0
5178 -5175 -2111 0
-5179 2104 0
5179 -2104 0
-5180 5179 2108 0
5180 -5179 0
5180 -2108 0
-5181 5179 0
-5181 2108 0
5181 -5179 -2108 0
-5182 5180 2112 0
5182 -5180 0
5182 -2112 0
-5183 5181 5180 0
-5183 5181 2112 0
5183 -5181 0
5183 -5180 -2112 0
-5184 5181 0
-5184 2112 0
5184 -5181 -2112 0
-5182 5176 0
5182 -5176 0
-5183 5177 0
5183 -5177 0
-5184 5178 0
5184 -5178 0
-5185 2115 0
5185 -2115 0
-5186 5185 2119 0
5186 -5185 0
5186 -2119 0
-5187 5185 0
-5187 2119 0
5187 -5185 -2119 0
-5188 5186 2123 0
5188 -5186 0
5188 -2123 0
-5189 5187 5186 0
-5189 5187 2123 0
5189 -5187 0
5189 -5186 -2123 0
-5190 5187 0
-5190 2123 0
5190 -5187 -2123 0
-5191 2116 0
5191 -2116 0
-5192 5191 2120 0
5192 -5191 0
5192 -2120 0
-5193 5191 0
-5193 2120 0
5193 -5191 -2120 0
-5194 5192 2124 0
5194 -5192 0
5194 -2124 0
-5195 5193 5192 0
-5195 5193 2124 0
5195 -5193 0
5195 -5192 -2124 0
-5196 5193 0
-5196 2124 0
5196 -5193 -2124 0
-5194 5188 0
5194 -5188 0
-5195 5189 0
5195 -5189 0
-5196 5190 0
5196 -5190 0
-5197 2127 0
5197 -2127 0
-5198 5197 2131 0
5198 -5197 0
5198 -2131 0
-5199 5197 0
-5199 2131 0
5199 -5197 -2131 0
-5200 5198 2135 0
5200 -5198 0
5200 -2135 0
-5201 5199 5198 0
-5201 5199 2135 0
5201 -5199 0
5201 -5198 -2135 0
-5202 5199 0
-5202 2135 0
5202 -5199 -2135 0
-5203 2128 0
5203 -2128 0
-5204 5203 2132 0
5204 -5203 0
5204 -2132 0
-5205 5203 0
-5205 2132 0
5205 -5203 -2132 0
-5206 5204 2136 0
5206 -5204 0
5206 -2136 0
-5207 5205 5204 0
-5207 5205 2136 0
5207 -5205 0
5207 -5204 -2136 0
-5208 5205 0
-5208 2136 0
5208 -5205 -2136 0
-5206 5200 0
5206 -5200 0
-5207 5201 0
5207 -5201 0
-5208 5202 0
5208 -5202 0
-5209 2139 0
5209 -2139 0
-5210 5209 2143 0
5210 -5209 0
5210 -2143 0
-5211 5209 0
-5211 2143 0
5211 -5209 -2143 0
-5212 5210 2147 0
5212 -5210 0
5212 -2147 0
-5213 5211 5210 0
-5213 5211 2147 0
5213 -5211 0
5213 -5210 -2147 0
-5214 5211 0
-5214 2147 0
5214 -5211 -2147 0
-5215 2140 0
5215 -2140 0
-5216 5215 2144 0
5216 -5215 0
5216 -2144 0
-5217 5215 0
-5217 2144 0
5217 -5215 -2144 0
-5218 5216 2148 0
5218 -5216 0
5218 -2148 0
-5219 5217 5216 0
-5219 5217 2148 0
5219 -5217 0
5219 -5216 -2148 0
-5220 5217 0
-5220 2148 0
5220 -5217 -2148 0
-5218 5212 0
5218 -5212 0
-5219 5213 0
5219 -5213 0
-5220 5214 0
5220 -5214 0
-5221 2151 0
5221 -2151 0
-5222 5221 2155 0
5222 -5221 0
5222 -2155 0
-5223 5221 0
-5223 2155 0
5223 -5221 -2155 0
-5224 5222 2159 0
5224 -5222 0
5224 -2159 0
-5225 5223 5222 0
-5225 5223 2159 0
5225 -5223 0
5225 -5222 -2159 0
-5226 5223 0
-5226 2159 0
5226 -5223 -2159 0
-5227 2152 0
5227 -2152 0
-5228 5227 2156 0
5228 -5227 0
5228 -2156 0
-5229 5227 0
-5229 2156 0
5229 -5227 -2156 0
-5230 5228 2160 0
5230 -5228 0
5230 -2160 0
-5231 5229 5228 0
-5231 5229 2160 0
5231 -5229 0
5231 -5228 -2160 0
-5232 5229 0
-5232 2160 0
5232 -5229 -2160 0
-5230 5224 0
5230 -5224 0
-5231 5225 0
5231 -5225 0
-5232 5226 0
5232 -5226 0
-5233 2163 0
5233 -2163 0
-5234 5233 2167 0
5234 -5233 0
5234 -2167 0
-5235 5233 0
-5235 2167 0
5235 -5233 -2167 0
-5236 5234 2171 0
5236 -5234 0
5236 -2171 0
-5237 5235 5234 0
-5237 5235 2171 0
5237 -5235 0
5237 -5234 -2171 0
-5238 5235 0
-5238 2171 0
5238 -5235 -2171 0
-5239 2164 0
5239 -2164 0
-5240 5239 2168 0
5240 -5239 0
5240 -2168 0
-5241 5239 0
-5241 2168 0
5241 -5239 -2168 0
-5242 5240 2172 0
5242 -5240 0
5242 -2172 0
-5243 5241 5240 0
-5243 5241 2172 0
5243 -5241 0
5243 -5240 -2172 0
-5244 5241 0
-5244 2172 0
5244 -5241 -2172 0
-5242 5236 0
5242 -5236 0
-5243 5237 0
5243 -5237 0
-5244 5238 0
5244 -5238 0
-5245 2175 0
5245 -2175 0
-5246 5245 2179 0
5246 -5245 0
5246 -2179 0
-5247 5245 0
-5247 2179 0
5247 -5245 -2179 0
-5248 5246 2183 0
5248 -5246 0
5248 -2183 0
-5249 5247 5246 0
-5249 5247 2183 0
5249 -5247 0
5249 -5246 -2183 0
-5250 5247 0
-5250 2183 0
5250 -5247 -2183 0
-5251 2176 0
5251 -2176 0
-5252 5251 2180 0
5252 -5251 0
5252 -2180 0
-5253 5251 0
-5253 2180 0
5253 -5251 -2180 0
-5254 5252 2184 0
5254 -5252 0
5254 -2184 0
-5255 5253 5252 0
-5255 5253 2184 0
5255 -5253 0
5255 -5252 -2184 0
-5256 5253 0
-5256 2184 0
5256 -5253 -2184 0
-5254 5248 0
5254 -5248 0
-5255 5249 0
5255 -5249 0
-5256 5250 0
5256 -5250 0
-5257 2187 0
5257 -2187 0
-5258 5257 2191 0
5258 -5257 0
5258 -2191 0
-5259 5257 0
-5259 2191 0
5259 -5257 -2191 0
-5260 5258 2195 0
5260 -5258 0
5260 -2195 0
-5261 5259 5258 0
-5261 5259 2195 0
5261 -5259 0
5261 -5258 -2195 0
-5262 5259 0
-5262 2195 0
5262 -5259 -2195 0
-5263 2188 0
5263 -2188 0
-5264 5263 2192 0
5264 -5263 0
5264 -2192 0
-5265 5263 0
-5265 2192 0
5265 -5263 -2192 0
-5266 5264 2196 0
5266 -5264 0
5266 -2196 0
-5267 5265 5264 0
-5267 5265 2196 0
5267 -5265 0
5267 -5264 -2196 0
-5268 5265 0
-5268 2196 0
5268 -5265 -2196 0
-5266 5260 0
5266 -5260 0
-5267 5261 0
5267 -5261 0
-5268 5262 0
5268 -5262 0
-5269 2199 0
5269 -2199 0
-5270 5269 2203 0
5270 -5269 0
5270 -2203 0
-5271 5269 0
-5271 2203 0
5271 -5269 -2203 0
-5272 5270 2207 0
5272 -5270 0
5272 -2207 0
-5273 5271 5270 0
-5273 5271 2207 0
5273 -5271 0
5273 -5270 -2207 0
-5274 5271 0
-5274 2207 0
5274 -5271 -2207 0
-5275 2200 0
5275 -2200 0
-5276 5275 2204 0
5276 -5275 0
5276 -2204 0
-5277 5275 0
-5277 2204 0
5277 -5275 -2204 0
-5278 5276 2208 0
5278 -5276 0
5278 -2208 0
-5279 5277 5276 0
-5279 5277 2208 0
5279 -5277 0
5279 -5276 -2208 0
-5280 5277 0
-5280 2208 0
5280 -5277 -2208 0
-5278 5272 0
5278 -5272 0
-5279 5273 0
5279 -5273 0
-5280 5274 0
5280 -5274 0
-5281 2211 0
5281 -2211 0
-5282 5281 2215 0
5282 -5281 0
5282 -2215 0
-5283 5281 0
-5283 2215 0
5283 -5281 -2215 0
-5284 5282 2219 0
5284 -5282 0
5284 -2219 0
-5285 5283 5282 0
-5285 5283 2219 0
5285 -5283 0
5285 -5282 -2219 0
-5286 5283 0
-5286 2219 0
5286 -5283 -2219 0
-5287 2212 0
5287 -2212 0
-5288 5287 2216 0
5288 -5287 0
5288 -2216 0
-5289 5287 0
-5289 2216 0
5289 -5287 -2216 0
-5290 5288 2220 0
5290 -5288 0
5290 -2220 0
-5291 5289 5288 0
-5291 5289 2220 0
5291 -5289 0
5291 -5288 -2220 0
-5292 5289 0
-5292 2220 0
5292 -5289 -2220 0
-5290 5284 0
5290 -5284 0
-5291 5285 0
5291 -5285 0
-5292 5286 0
5292 -5286 0
-5293 2223 0
5293 -2223 0
-5294 5293 2227 0
5294 -5293 0
5294 -2227 0
-5295 5293 0
-5295 2227 0
5295 -5293 -2227 0
-5296 5294 2231 0
5296 -5294 0
5296 -2231 0
-5297 5295 5294 0
-5297 5295 2231 0
5297 -5295 0
5297 -5294 -2231 0
-5298 5295 0
-5298 2231 0
5298 -5295 -2231 0
-5299 2224 0
5299 -2224 0
-5300 5299 2228 0
5300 -5299 0
5300 -2228 0
-5301 5299 0
-5301 2228 0
5301 -5299 -2228 0
-5302 5300 2232 0
5302 -5300 0
5302 -2232 0
-5303 5301 5300 0
-5303 5301 2232 0
5303 -5301 0
5303 -5300 -2232 0
-5304 5301 0
-5304 2232 0
5304 -5301 -2232 0
-5302 5296 0
5302 -5296 0
-5303 5297 0
5303 -5297 0
-5304 5298 0
5304 -5298 0
-5305 2235 0
5305 -2235 0
-5306 5305 2239 0
5306 -5305 0
5306 -2239 0
-5307 5305 0
-5307 2239 0
5307 -5305 -2239 0
-5308 5306 2243 0
5308 -5306 0
5308 -2243 0
-5309 5307 5306 0
-5309 5307 2243 0
5309 -5307 0
5309 -5306 -2243 0
-5310 5307 0
-5310 2243 0
5310 -5307 -2243 0
-5311 2236 0
5311 -2236 0
-5312 5311 2240 0
5312 -5311 0
5312 -2240 0
-5313 5311 0
-5313 2240 0
5313 -5311 -2240 0
-5314 5312 2244 0
5314 -5312 0
5314 -2244 0
-5315 5313 5312 0
-5315 5313 2244 0
5315 -5313 0
5315 -5312 -2244 0
-5316 5313 0
-5316 2244 0
5316 -5313 -2244 0
-5314 5309 0
5314 -5309 0
-5315 5310 0
5315 -5310 0
-5316 0
5308 0
-5317 2247 0
5317 -2247 0
-5318 5317 2251 0
5318 -5317 0
5318 -2251 0
-5319 5317 0
-5319 2251 0
5319 -5317 -2251 0
-5320 5318 2255 0
5320 -5318 0
5320 -2255 0
-5321 5319 5318 0
-5321 5319 2255 0
5321 -5319 0
5321 -5318 -2255 0
-5322 5319 0
-5322 2255 0
5322 -5319 -2255 0
-5323 2248 0
5323 -2248 0
-5324 5323 2252 0
5324 -5323 0
5324 -2252 0
-5325 5323 0
-5325 2252 0
5325 -5323 -2252 0
-5326 5324 2256 0
5326 -5324 0
5326 -2256 0
-5327 5325 5324 0
-5327 5325 2256 0
5327 -5325 0
5327 -5324 -2256 0
-5328 5325 0
-5328 2256 0
5328 -5325 -2256 0
-5326 5320 0
5326 -5320 0
-5327 5321 0
5327 -5321 0
-5328 5322 0
5328 -5322 0
-5329 2259 0
5329 -2259 0
-5330 5329 2263 0
5330 -5329 0
5330 -2263 0
-5331 5329 0
-5331 2263 0
5331 -5329 -2263 0
-5332 5330 2267 0
5332 -5330 0
5332 -2267 0
-5333 5331 5330 0
-5333 5331 2267 0
5333 -5331 0
5333 -5330 -2267 0
-5334 5331 0
-5334 2267 0
5334 -5331 -2267 0
-5335 2260 0
5335 -2260 0
-5336 5335 2264 0
5336 -5335 0
5336 -2264 0
-5337 5335 0
-5337 2264 0
5337 -5335 -2264 0
-5338 5336 2268 0
5338 -5336 0
5338 -2268 0
-5339 5337 5336 0
-5339 5337 2268 0
5339 -5337 0
5339 -5336 -2268 0
-5340 5337 0
-5340 2268 0
5340 -5337 -2268 0
-5338 5332 0
5338 -5332 0
-5339 5333 0
5339 -5333 0
-5340 5334 0
5340 -5334 0
-5341 2271 0
5341 -2271 0
-5342 5341 2275 0
5342 -5341 0
5342 -2275 0
-5343 5341 0
-5343 2275 0
5343 -5341 -2275 0
-5344 5342 2279 0
5344 -5342 0
5344 -2279 0
-5345 5343 5342 0
-5345 5343 2279 0
5345 -5343 0
5345 -5342 -2279 0
-5346 5343 0
-5346 2279 0
5346 -5343 -2279 0
-5347 2272 0
5347 -2272 0
-5348 5347 2276 0
5348 -5347 0
5348 -2276 0
-5349 5347 0
-5349 2276 0
5349 -5347 -2276 0
-5350 5348 2280 0
5350 -5348 0
5350 -2280 0
-5351 5349 5348 0
-5351 5349 2280 0
5351 -5349 0
5351 -5348 -2280 0
-5352 5349 0
-5352 2280 0
5352 -5349 -2280 0
-5350 5344 0
5350 -5344 0
-5351 5345 0
5351 -5345 0
-5352 5346 0
5352 -5346 0
-5353 2283 0
5353 -2283 0
-5354 5353 2287 0
5354 -5353 0
5354 -2287 0
-5355 5353 0
-5355 2287 0
5355 -5353 -2287 0
-5356 5354 2291 0
5356 -5354 0
5356 -2291 0
-5357 5355 5354 0
-5357 5355 2291 0
5357 -5355 0
5357 -5354 -2291 0
-5358 5355 0
-5358 2291 0
5358 -5355 -2291 0
-5359 2284 0
5359 -2284 0
-5360 5359 2288 0
5360 -5359 0
5360 -2288 0
-5361 5359 0
-5361 2288 0
5361 -5359 -2288 0
-5362 5360 2292 0
5362 -5360 0
5362 -2292 0
-5363 5361 5360 0
-5363 5361 2292 0
5363 -5361 0
5363 -5360 -2292 0
-5364 5361 0
-5364 2292 0
5364 -5361 -2292 0
-5362 5356 0
5362 -5356 0
-5363 5357 0
5363 -5357 0
-5364 5358 0
5364 -5358 0
-5365 2295 0
5365 -2295 0
-5366 5365 2299 0
5366 -5365 0
5366 -2299 0
-5367 5365 0
-5367 2299 0
5367 -5365 -2299 0
-5368 5366 2303 0
5368 -5366 0
5368 -2303 0
-5369 5367 5366 0
-5369 5367 2303 0
5369 -5367 0
5369 -5366 -2303 0
-5370 5367 0
-5370 2303 0
5370 -5367 -2303 0
-5371 2296 0
5371 -2296 0
-5372 5371 2300 0
5372 -5371 0
5372 -2300 0
-5373 5371 0
-5373 2300 0
5373 -5371 -2300 0
-5374 5372 2304 0
5374 -5372 0
5374 -2304 0
-5375 5373 5372 0
-5375 5373 2304 0
5375 -5373 0
5375 -5372 -2304 0
-5376 5373 0
-5376 2304 0
5376 -5373 -2304 0
-5374 5368 0
5374 -5368 0
-5375 5369 0
5375 -5369 0
-5376 5370 0
5376 -5370 0
-5377 2307 0
5377 -2307 0
-5378 5377 2311 0
5378 -5377 0
5378 -2311 0
-5379 5377 0
-5379 2311 0
5379 -5377 -2311 0
-5380 5378 2315 0
5380 -5378 0
5380 -2315 0
-5381 5379 5378 0
-5381 5379 2315 0
5381 -5379 0
5381 -5378 -2315 0
-5382 5379 0
-5382 2315 0
5382 -5379 -2315 0
-5383 2308 0
5383 -2308 0
-5384 5383 2312 0
5384 -5383 0
5384 -2312 0
-5385 5383 0
-5385 2312 0
5385 -5383 -2312 0
-5386 5384 2316 0
5386 -5384 0
5386 -2316 0
-5387 5385 5384 0
-5387 5385 2316 0
5387 -5385 0
5387 -5384 -2316 0
-5388 5385 0
-5388 2316 0
5388 -5385 -2316 0
-5386 5380 0
5386 -5380 0
-5387 5381 0
5387 -5381 0
-5388 5382 0
5388 -5382 0
-5389 2319 0
5389 -2319 0
-5390 5389 2323 0
5390 -5389 0
5390 -2323 0
-5391 5389 0
-5391 2323 0
5391 -5389 -2323 0
-5392 5390 2327 0
5392 -5390 0
5392 -2327 0
-5393 5391 5390 0
-5393 5391 2327 0
5393 -5391 0
5393 -5390 -2327 0
-5394 5391 0
-5394 2327 0
5394 -5391 -2327 0
-5395 2320 0
5395 -2320 0
-5396 5395 2324 0
5396 -5395 0
5396 -2324 0
-5397 5395 0
-5397 2324 0
5397 -5395 -2324 0
-5398 5396 2328 0
5398 -5396 0
5398 -2328 0
-5399 5397 5396 0
-5399 5397 2328 0
5399 -5397 0
5399 -5396 -2328 0
-5400 5397 0
-5400 2328 0
5400 -5397 -2328 0
-5398 5392 0
5398 -5392 0
-5399 5393 0
5399 -5393 0
-5400 5394 0
5400 -5394 0
-5401 2331 0
5401 -2331 0
-5402 5401 2335 0
5402 -5401 0
5402 -2335 0
-5403 5401 0
-5403 2335 0
5403 -5401 -2335 0
-5404 5402 2339 0
5404 -5402 0
5404 -2339 0
-5405 5403 5402 0
-5405 5403 2339 0
5405 -5403 0
5405 -5402 -2339 0
-5406 5403 0
-5406 2339 0
5406 -5403 -2339 0
-5407 2332 0
5407 -2332 0
-5408 5407 2336 0
5408 -5407 0
5408 -2336 0
-5409 5407 0
-5409 2336 0
5409 -5407 -2336 0
-5410 5408 2340 0
5410 -5408 0
5410 -2340 0
-5411 5409 5408 0
-5411 5409 2340 0
5411 -5409 0
5411 -5408 -2340 0
-5412 5409 0
-5412 2340 0
5412 -5409 -2340 0
-5410 5404 0
5410 -5404 0
-5411 5405 0
5411 -5405 0
-5412 5406 0
5412 -5406 0
-5413 2343 0
5413 -2343 0
-5414 5413 2347 0
5414 -5413 0
5414 -2347 0
-5415 5413 0
-5415 2347 0
5415 -5413 -2347 0
-5416 5414 2351 0
5416 -5414 0
5416 -2351 0
-5417 5415 5414 0
-5417 5415 2351 0
5417 -5415 0
5417 -5414 -2351 0
-5418 5415 0
-5418 2351 0
5418 -5415 -2351 0
-5419 2344 0
5419 -2344 0
-5420 5419 2348 0
5420 -5419 0
5420 -2348 0
-5421 5419 0
-5421 2348 0
5421 -5419 -2348 0
-5422 5420 2352 0
5422 -5420 0
5422 -2352 0
-5423 5421 5420 0
-5423 5421 2352 0
5423 -5421 0
5423 -5420 -2352 0
-5424 5421 0
-5424 2352 0
5424 -5421 -2352 0
-5422 5416 0
5422 -5416 0
-5423 5417 0
5423 -5417 0
-5424 5418 0
5424 -5418 0
-5425 2355 0
5425 -2355 0
-5426 5425 2359 0
5426 -5425 0
5426 -2359 0
-5427 5425 0
-5427 2359 0
5427 -5425 -2359 0
-5428 5426 2363 0
5428 -5426 0
5428 -2363 0
-5429 5427 5426 0
-5429 5427 2363 0
5429 -5427 0
5429 -5426 -2363 0
-5430 5427 0
-5430 2363 0
5430 -5427 -2363 0
-5431 2356 0
5431 -2356 0
-5432 5431 2360 0
5432 -5431 0
5432 -2360 0
-5433 5431 0
-5433 2360 0
5433 -5431 -2360 0
-5434 5432 2364 0
5434 -5432 0
5434 -2364 0
-5435 5433 5432 0
-5435 5433 2364 0
5435 -5433 0
5435 -5432 -2364 0
-5436 5433 0
-5436 2364 0
5436 -5433 -2364 0
-5434 5428 0
5434 -5428 0
-5435 5429 0
5435 -5429 0
-5436 5430 0
5436 -5430 0
-5437 2367 0
5437 -2367 0
-5438 5437 2371 0
5438 -5437 0
5438 -2371 0
-5439 5437 0
-5439 2371 0
5439 -5437 -2371 0
-5440 5438 2375 0
5440 -5438 0
5440 -2375 0
-5441 5439 5438 0
-5441 5439 2375 0
5441 -5439 0
5441 -5438 -2375 0
-5442 5439 0
-5442 2375 0
5442 -5439 -2375 0
-5443 2368 0
5443 -2368 0
-5444 5443 2372 0
5444 -5443 0
5444 -2372 0
-5445 5443 0
-5445 2372 0
5445 -5443 -2372 0
-5446 5444 2376 0
5446 -5444 0
5446 -2376 0
-5447 5445 5444 0
-5447 5445 2376 0
5447 -5445 0
5447 -5444 -2376 0
-5448 5445 0
-5448 2376 0
5448 -5445 -2376 0
-5446 5440 0
5446 -5440 0
-5447 5441 0
5447 -5441 0
-5448 5442 0
5448 -5442 0
-5449 2379 0
5449 -2379 0
-5450 5449 2383 0
5450 -5449 0
5450 -2383 0
-5451 5449 0
-5451 2383 0
5451 -5449 -2383 0
-5452 5450 2387 0
5452 -5450 0
5452 -2387 0
-5453 5451 5450 0
-5453 5451 2387 0
5453 -5451 0
5453 -5450 -2387 0
-5454 5451 0
-5454 2387 0
5454 -5451 -2387 0
-5455 2380 0
5455 -2380 0
-5456 5455 2384 0
5456 -5455 0
5456 -2384 0
-5457 5455 0
-5457 2384 0
5457 -5455 -2384 0
-5458 5456 2388 0
5458 -5456 0
5458 -2388 0
-5459 5457 5456 0
-5459 5457 2388 0
5459 -5457 0
5459 -5456 -2388 0
-5460 5457 0
-5460 2388 0
5460 -5457 -2388 0
-5458 5452 0
5458 -5452 0
-5459 5453 0
5459 -5453 0
-5460 5454 0
5460 -5454 0
-5461 2391 0
5461 -2391 0
-5462 5461 2395 0
5462 -5461 0
5462 -2395 0
-5463 5461 0
-5463 2395 0
5463 -5461 -2395 0
-5464 5462 2399 0
5464 -5462 0
5464 -2399 0
-5465 5463 5462 0
-5465 5463 2399 0
5465 -5463 0
5465 -5462 -2399 0
-5466 5463 0
-5466 2399 0
5466 -5463 -2399 0
-5467 2392 0
5467 -2392 0
-5468 5467 2396 0
5468 -5467 0
5468 -2396 0
-5469 5467 0
-5469 2396 0
5469 -5467 -2396 0
-5470 5468 2400 0
5470 -5468 0
5470 -2400 0
-5471 5469 5468 0
-5471 5469 2400 0
5471 -5469 0
5471 -5468 -2400 0
-5472 5469 0
-5472 2400 0
5472 -5469 -2400 0
-5470 5464 0
5470 -5464 0
-5471 5465 0
5471 -5465 0
-5472 5466 0
5472 -5466 0
-5473 2403 0
5473 -2403 0
-5474 5473 2407 0
5474 -5473 0
5474 -2407 0
-5475 5473 0
-5475 2407 0
5475 -5473 -2407 0
-5476 5474 2411 0
5476 -5474 0
5476 -2411 0
-5477 5475 5474 0
-5477 5475 2411 0
5477 -5475 0
5477 -5474 -2411 0
-5478 5475 0
-5478 2411 0
5478 -5475 -2411 0
-5479 2404 0
5479 -2404 0
-5480 5479 2408 0
5480 -5479 0
5480 -2408 0
-5481 5479 0
-5481 2408 0
5481 -5479 -2408 0
-5482 5480 2412 0
5482 -5480 0
5482 -2412 0
-5483 5481 5480 0
-5483 5481 2412 0
5483 -5481 0
5483 -5480 -2412 0
-5484 5481 0
-5484 2412 0
5484 -5481 -2412 0
-5482 5476 0
5482 -5476 0
-5483 5477 0
5483 -5477 0
-5484 5478 0
5484 -5478 0
-5485 2415 0
5485 -2415 0
-5486 5485 2419 0
5486 -5485 0
5486 -2419 0
-5487 5485 0
-5487 2419 0
5487 -5485 -2419 0
-5488 5486 2423 0
5488 -5486 0
5488 -2423 0
-5489 5487 5486 0
-5489 5487 2423 0
5489 -5487 0
5489 -5486 -2423 0
-5490 5487 0
-5490 2423 0
5490 -5487 -2423 0
-5491 2416 0
5491 -2416 0
-5492 5491 2420 0
5492 -5491 0
5492 -2420 0
-5493 5491 0
-5493 2420 0
5493 -5491 -2420 0
-5494 5492 2424 0
5494 -5492 0
5494 -2424 0
-5495 5493 5492 0
-5495 5493 2424 0
5495 -5493 0
5495 -5492 -2424 0
-5496 5493 0
-5496 2424 0
5496 -5493 -2424 0
-5494 5488 0
5494 -5488 0
-5495 5489 0
5495 -5489 0
-5496 5490 0
5496 -5490 0
-5497 2427 0
5497 -2427 0
-5498 5497 2431 0
5498 -5497 0
5498 -2431 0
-5499 5497 0
-5499 2431 0
5499 -5497 -2431 0
-5500 5498 2435 0
5500 -5498 0
5500 -2435 0
-5501 5499 5498 0
-5501 5499 2435 0
5501 -5499 0
5501 -5498 -2435 0
-5502 5499 0
-5502 2435 0
5502 -5499 -2435 0
-5503 2428 0
5503 -2428 0
-5504 5503 2432 0
5504 -5503 0
5504 -2432 0
-5505 5503 0
-5505 2432 0
5505 -5503 -2432 0
-5506 5504 2436 0
5506 -5504 0
5506 -2436 0
-5507 5505 5504 0
-5507 5505 2436 0
5507 -5505 0
5507 -5504 -2436 0
-5508 5505 0
-5508 2436 0
5508 -5505 -2436 0
-5506 5500 0
5506 -5500 0
-5507 5501 0
5507 -5501 0
-5508 5502 0
5508 -5502 0
-5509 2439 0
5509 -2439 0
-5510 5509 2443 0
5510 -5509 0
5510 -2443 0
-5511 5509 0
-5511 2443 0
5511 -5509 -2443 0
-5512 5510 2447 0
5512 -5510 0
5512 -2447 0
-5513 5511 5510 0
-5513 5511 2447 0
5513 -5511 0
5513 -5510 -2447 0
-5514 5511 0
-5514 2447 0
5514 -5511 -2447 0
-5515 2440 0
5515 -2440 0
-5516 5515 2444 0
5516 -5515 0
5516 -2444 0
-5517 5515 0
-5517 2444 0
5517 -5515 -2444 0
-5518 5516 2448 0
5518 -5516 0
5518 -2448 0
-5519 5517 5516 0
-5519 5517 2448 0
5519 -5517 0
5519 -5516 -2448 0
-5520 5517 0
-5520 2448 0
5520 -5517 -2448 0
-5518 5512 0
5518 -5512 0
-5519 5513 0
5519 -5513 0
-5520 5514 0
5520 -5514 0
-5521 2451 0
5521 -2451 0
-5522 5521 2455 0
5522 -5521 0
5522 -2455 0
-5523 5521 0
-5523 2455 0
5523 -5521 -2455 0
-5524 5522 2459 0
5524 -5522 0
5524 -2459 0
-5525 5523 5522 0
-5525 5523 2459 0
5525 -5523 0
5525 -5522 -2459 0
-5526 5523 0
-5526 2459 0
5526 -5523 -2459 0
-5527 2452 0
5527 -2452 0
-5528 5527 2456 0
5528 -5527 0
5528 -2456 0
-5529 5527 0
-5529 2456 0
5529 -5527 -2456 0
-5530 5528 2460 0
5530 -5528 0
5530 -2460 0
-5531 5529 5528 0
-5531 5529 2460 0
5531 -5529 0
5531 -5528 -2460 0
-5532 5529 0
-5532 2460 0
5532 -5529 -2460 0
-5530 5524 0
5530 -5524 0
-5531 5525 0
5531 -5525 0
-5532 5526 0
5532 -5526 0
-5533 2463 0
5533 -2463 0
-5534 5533 2467 0
5534 -5533 0
5534 -2467 0
-5535 5533 0
-5535 2467 0
5535 -5533 -2467 0
-5536 5534 2471 0
5536 -5534 0
5536 -2471 0
-5537 5535 5534 0
-5537 5535 2471 0
5537 -5535 0
5537 -5534 -2471 0
-5538 5535 0
-5538 2471 0
5538 -5535 -2471 0
-5539 2464 0
5539 -2464 0
-5540 5539 2468 0
5540 -5539 0
5540 -2468 0
-5541 5539 0
-5541 2468 0
5541 -5539 -2468 0
-5542 5540 2472 0
5542 -5540 0
5542 -2472 0
-5543 5541 5540 0
-5543 5541 2472 0
5543 -5541 0
5543 -5540 -2472 0
-5544 5541 0
-5544 2472 0
5544 -5541 -2472 0
-5542 5536 0
5542 -5536 0
-5543 5537 0
5543 -5537 0
-5544 5538 0
5544 -5538 0
-5545 2475 0
5545 -2475 0
-5546 5545 2479 0
5546 -5545 0
5546 -2479 0
-5547 5545 0
-5547 2479 0
5547 -5545 -2479 0
-5548 5546 2483 0
5548 -5546 0
5548 -2483 0
-5549 5547 5546 0
-5549 5547 2483 0
5549 -5547 0
5549 -5546 -2483 0
-5550 5547 0
-5550 2483 0
5550 -5547 -2483 0
-5551 2476 0
5551 -2476 0
-5552 5551 2480 0
5552 -5551 0
5552 -2480 0
-5553 5551 0
-5553 2480 0
5553 -5551 -2480 0
-5554 5552 2484 0
5554 -5552 0
5554 -2484 0
-5555 5553 5552 0
-5555 5553 2484 0
5555 -5553 0
5555 -5552 -2484 0
-5556 5553 0
-5556 2484 0
5556 -5553 -2484 0
-5554 5548 0
5554 -5548 0
-5555 5549 0
5555 -5549 0
-5556 5550 0
5556 -5550 0
-5557 2487 0
5557 -2487 0
-5558 5557 2491 0
5558 -5557 0
5558 -2491 0
-5559 5557 0
-5559 2491 0
5559 -5557 -2491 0
-5560 5558 2495 0
5560 -5558 0
5560 -2495 0
-5561 5559 5558 0
-5561 5559 2495 0
5561 -5559 0
5561 -5558 -2495 0
-5562 5559 0
-5562 2495 0
5562 -5559 -2495 0
-5563 2488 0
5563 -2488 0
-5564 5563 2492 0
5564 -5563 0
5564 -2492 0
-5565 5563 0
-5565 2492 0
5565 -5563 -2492 0
-5566 5564 2496 0
5566 -5564 0
5566 -2496 0
-5567 5565 5564 0
-5567 5565 2496 0
5567 -5565 0
5567 -5564 -2496 0
-5568 5565 0
-5568 2496 0
5568 -5565 -2496 0
-5566 5560 0
5566 -5560 0
-5567 5561 0
5567 -5561 0
-5568 5562 0
5568 -5562 0
-5569 2499 0
5569 -2499 0
-5570 5569 2503 0
5570 -5569 0
5570 -2503 0
-5571 5569 0
-5571 2503 0
5571 -5569 -2503 0
-5572 5570 2507 0
5572 -5570 0
5572 -2507 0
-5573 5571 5570 0
-5573 5571 2507 0
5573 -5571 0
5573 -5570 -2507 0
-5574 5571 0
-5574 2507 0
5574 -5571 -2507 0
-5575 2500 0
5575 -2500 0
-5576 5575 2504 0
5576 -5575 0
5576 -2504 0
-5577 5575 0
-5577 2504 0
5577 -5575 -2504 0
-5578 5576 2508 0
5578 -5576 0
5578 -2508 0
-5579 5577 5576 0
-5579 5577 2508 0
5579 -5577 0
5579 -5576 -2508 0
-5580 5577 0
-5580 2508 0
5580 -5577 -2508 0
-5578 5572 0
5578 -5572 0
-5579 5573 0
5579 -5573 0
-5580 5574 0
5580 -5574 0
-5581 2511 0
5581 -2511 0
-5582 5581 2515 0
5582 -5581 0
5582 -2515 0
-5583 5581 0
-5583 2515 0
5583 -5581 -2515 0
-5584 5582 2519 0
5584 -5582 0
5584 -2519 0
-5585 5583 5582 0
-5585 5583 2519 0
5585 -5583 0
5585 -5582 -2519 0
-5586 5583 0
-5586 2519 0
5586 -5583 -2519 0
-5587 2512 0
5587 -2512 0
-5588 5587 2516 0
5588 -5587 0
5588 -2516 0
-5589 5587 0
-5589 2516 0
5589 -5587 -2516 0
-5590 5588 2520 0
5590 -5588 0
5590 -2520 0
-5591 5589 5588 0
-5591 5589 2520 0
5591 -5589 0
5591 -5588 -2520 0
-5592 5589 0
-5592 2520 0
5592 -5589 -2520 0
-5590 5584 0
5590 -5584 0
-5591 5585 0
5591 -5585 0
-5592 5586 0
5592 -5586 0
-5593 2523 0
5593 -2523 0
-5594 5593 2527 0
5594 -5593 0
5594 -2527 0
-5595 5593 0
-5595 2527 0
5595 -5593 -2527 0
-5596 5594 2531 0
5596 -5594 0
5596 -2531 0
-5597 5595 5594 0
-5597 5595 2531 0
5597 -5595 0
5597 -5594 -2531 0
-5598 5595 0
-5598 2531 0
5598 -5595 -2531 0
-5599 2524 0
5599 -2524 0
-5600 5599 2528 0
5600 -5599 0
5600 -2528 0
-5601 5599 0
-5601 2528 0
5601 -5599 -2528 0
-5602 5600 2532 0
5602 -5600 0
5602 -2532 0
-5603 5601 5600 0
-5603 5601 2532 0
5603 -5601 0
5603 -5600 -2532 0
-5604 5601 0
-5604 2532 0
5604 -5601 -2532 0
-5602 5596 0
5602 -5596 0
-5603 5597 0
5603 -5597 0
-5604 5598 0
5604 -5598 0
-5605 2535 0
5605 -2535 0
-5606 5605 2539 0
5606 -5605 0
5606 -2539 0
-5607 5605 0
-5607 2539 0
5607 -5605 -2539 0
-5608 5606 2543 0
5608 -5606 0
5608 -2543 0
-5609 5607 5606 0
-5609 5607 2543 0
5609 -5607 0
5609 -5606 -2543 0
-5610 5607 0
-5610 2543 0
5610 -5607 -2543 0
-5611 2536 0
5611 -2536 0
-5612 5611 2540 0
5612 -5611 0
5612 -2540 0
-5613 5611 0
-5613 2540 0
5613 -5611 -2540 0
-5614 5612 2544 0
5614 -5612 0
5614 -2544 0
-5615 5613 5612 0
-5615 5613 2544 0
5615 -5613 0
5615 -5612 -2544 0
-5616 5613 0
-5616 2544 0
5616 -5613 -2544 0
-5614 5608 0
5614 -5608 0
-5615 5609 0
5615 -5609 0
-5616 5610 0
5616 -5610 0
-5617 2547 0
5617 -2547 0
-5618 5617 2551 0
5618 -5617 0
5618 -2551 0
-5619 5617 0
-5619 2551 0
5619 -5617 -2551 0
-5620 5618 2555 0
5620 -5618 0
5620 -2555 0
-5621 5619 5618 0
-5621 5619 2555 0
5621 -5619 0
5621 -5618 -2555 0
-5622 5619 0
-5622 2555 0
5622 -5619 -2555 0
-5623 2548 0
5623 -2548 0
-5624 5623 2552 0
5624 -5623 0
5624 -2552 0
-5625 5623 0
-5625 2552 0
5625 -5623 -2552 0
-5626 5624 2556 0
5626 -5624 0
5626 -2556 0
-5627 5625 5624 0
-5627 5625 2556 0
5627 -5625 0
5627 -5624 -2556 0
-5628 5625 0
-5628 2556 0
5628 -5625 -2556 0
-5626 5620 0
5626 -5620 0
-5627 5621 0
5627 -5621 0
-5628 5622 0
5628 -5622 0
-5629 2559 0
5629 -2559 0
-5630 5629 2563 0
5630 -5629 0
5630 -2563 0
-5631 5629 0
-5631 2563 0
5631 -5629 -2563 0
-5632 5630 2567 0
5632 -5630 0
5632 -2567 0
-5633 5631 5630 0
-5633 5631 2567 0
5633 -5631 0
5633 -5630 -2567 0
-5634 5631 0
-5634 2567 0
5634 -5631 -2567 0
-5635 2560 0
5635 -2560 0
-5636 5635 2564 0
5636 -5635 0
5636 -2564 0
-5637 5635 0
-5637 2564 0
5637 -5635 -2564 0
-5638 5636 2568 0
5638 -5636 0
5638 -2568 0
-5639 5637 5636 0
-5639 5637 2568 0
5639 -5637 0
5639 -5636 -2568 0
-5640 5637 0
-5640 2568 0
5640 -5637 -2568 0
-5638 5632 0
5638 -5632 0
-5639 5633 0
5639 -5633 0
-5640 5634 0
5640 -5634 0
-5641 2571 0
5641 -2571 0
-5642 5641 2575 0
5642 -5641 0
5642 -2575 0
-5643 5641 0
-5643 2575 0
5643 -5641 -2575 0
-5644 5642 2579 0
5644 -5642 0
5644 -2579 0
-5645 5643 5642 0
-5645 5643 2579 0
5645 -5643 0
5645 -5642 -2579 0
-5646 5643 0
-5646 2579 0
5646 -5643 -2579 0
-5647 2572 0
5647 -2572 0
-5648 5647 2576 0
5648 -5647 0
5648 -2576 0
-5649 5647 0
-5649 2576 0
5649 -5647 -2576 0
-5650 5648 2580 0
5650 -5648 0
5650 -2580 0
-5651 5649 5648 0
-5651 5649 2580 0
5651 -5649 0
5651 -5648 -2580 0
-5652 5649 0
-5652 2580 0
5652 -5649 -2580 0
-5650 5644 0
5650 -5644 0
-5651 5645 0
5651 -5645 0
-5652 5646 0
5652 -5646 0
-5653 2583 0
5653 -2583 0
-5654 5653 2587 0
5654 -5653 0
5654 -2587 0
-5655 5653 0
-5655 2587 0
5655 -5653 -2587 0
-5656 5654 2591 0
5656 -5654 0
5656 -2591 0
-5657 5655 5654 0
-5657 5655 2591 0
5657 -5655 0
5657 -5654 -2591 0
-5658 5655 0
-5658 2591 0
5658 -5655 -2591 0
-5659 2584 0
5659 -2584 0
-5660 5659 2588 0
5660 -5659 0
5660 -2588 0
-5661 5659 0
-5661 2588 0
5661 -5659 -2588 0
-5662 5660 2592 0
5662 -5660 0
5662 -2592 0
-5663 5661 5660 0
-5663 5661 2592 0
5663 -5661 0
5663 -5660 -2592 0
-5664 5661 0
-5664 2592 0
5664 -5661 -2592 0
-5662 5656 0
5662 -5656 0
-5663 5657 0
5663 -5657 0
-5664 5658 0
5664 -5658 0
-5665 2595 0
5665 -2595 0
-5666 5665 2599 0
5666 -5665 0
5666 -2599 0
-5667 5665 0
-5667 2599 0
5667 -5665 -2599 0
-5668 5666 2603 0
5668 -5666 0
5668 -2603 0
-5669 5667 5666 0
-5669 5667 2603 0
5669 -5667 0
5669 -5666 -2603 0
-5670 5667 0
-5670 2603 0
5670 -5667 -2603 0
-5671 2596 0
5671 -2596 0
-5672 5671 2600 0
5672 -5671 0
5672 -2600 0
-5673 5671 0
-5673 2600 0
5673 -5671 -2600 0
-5674 5672 2604 0
5674 -5672 0
5674 -2604 0
-5675 5673 5672 0
-5675 5673 2604 0
5675 -5673 0
5675 -5672 -2604 0
-5676 5673 0
-5676 2604 0
5676 -5673 -2604 0
-5674 5668 0
5674 -5668 0
-5675 5669 0
5675 -5669 0
-5676 5670 0
5676 -5670 0
-5677 2607 0
5677 -2607 0
-5678 5677 2611 0
5678 -5677 0
5678 -2611 0
-5679 5677 0
-5679 2611 0
5679 -5677 -2611 0
-5680 5678 2615 0
5680 -5678 0
5680 -2615 0
-5681 5679 5678 0
-5681 5679 2615 0
5681 -5679 0
5681 -5678 -2615 0
-5682 5679 0
-5682 2615 0
5682 -5679 -2615 0
-5683 2608 0
5683 -2608 0
-5684 5683 2612 0
5684 -5683 0
5684 -2612 0
-5685 5683 0
-5685 2612 0
5685 -5683 -2612 0
-5686 5684 2616 0
5686 -5684 0
5686 -2616 0
-5687 5685 5684 0
-5687 5685 2616 0
5687 -5685 0
5687 -5684 -2616 0
-5688 5685 0
-5688 2616 0
5688 -5685 -2616 0
-5686 5680 0
5686 -5680 0
-5687 5681 0
5687 -5681 0
-5688 5682 0
5688 -5682 0
-5689 2619 0
5689 -2619 0
-5690 5689 2623 0
5690 -5689 0
5690 -2623 0
-5691 5689 0
-5691 2623 0
5691 -5689 -2623 0
-5692 5690 2627 0
5692 -5690 0
5692 -2627 0
-5693 5691 5690 0
-5693 5691 2627 0
5693 -5691 0
5693 -5690 -2627 0
-5694 5691 0
-5694 2627 0
5694 -5691 -2627 0
-5695 2620 0
5695 -2620 0
-5696 5695 2624 0
5696 -5695 0
5696 -2624 0
-5697 5695 0
-5697 2624 0
5697 -5695 -2624 0
-5698 5696 2628 0
5698 -5696 0
5698 -2628 0
-5699 5697 5696 0
-5699 5697 2628 0
5699 -5697 0
5699 -5696 -2628 0
-5700 5697 0
-5700 2628 0
5700 -5697 -2628 0
-5698 5692 0
5698 -5692 0
-5699 5693 0
5699 -5693 0
-5700 5694 0
5700 -5694 0
-5701 2631 0
5701 -2631 0
-5702 5701 2635 0
5702 -5701 0
5702 -2635 0
-5703 5701 0
-5703 2635 0
5703 -5701 -2635 0
-5704 5702 2639 0
5704 -5702 0
5704 -2639 0
-5705 5703 5702 0
-5705 5703 2639 0
5705 -5703 0
5705 -5702 -2639 0
-5706 5703 0
-5706 2639 0
5706 -5703 -2639 0
-5707 2632 0
5707 -2632 0
-5708 5707 2636 0
5708 -5707 0
5708 -2636 0
-5709 5707 0
-5709 2636 0
5709 -5707 -2636 0
-5710 5708 2640 0
5710 -5708 0
5710 -2640 0
-5711 5709 5708 0
-5711 5709 2640 0
5711 -5709 0
5711 -5708 -2640 0
-5712 5709 0
-5712 2640 0
5712 -5709 -2640 0
-5710 5704 0
5710 -5704 0
-5711 5705 0
5711 -5705 0
-5712 5706 0
5712 -5706 0
-5713 2643 0
5713 -2643 0
-5714 5713 2647 0
5714 -5713 0
5714 -2647 0
-5715 5713 0
-5715 2647 0
5715 -5713 -2647 0
-5716 5714 2651 0
5716 -5714 0
5716 -2651 0
-5717 5715 5714 0
-5717 5715 2651 0
5717 -5715 0
5717 -5714 -2651 0
-5718 5715 0
-5718 2651 0
5718 -5715 -2651 0
-5719 2644 0
5719 -2644 0
-5720 5719 2648 0
5720 -5719 0
5720 -2648 0
-5721 5719 0
-5721 2648 0
5721 -5719 -2648 0
-5722 5720 2652 0
5722 -5720 0
5722 -2652 0
-5723 5721 5720 0
-5723 5721 2652 0
5723 -5721 0
5723 -5720 -2652 0
-5724 5721 0
-5724 2652 0
5724 -5721 -2652 0
-5722 5716 0
5722 -5716 0
-5723 5717 0
5723 -5717 0
-5724 5718 0
5724 -5718 0
-5725 2655 0
5725 -2655 0
-5726 5725 2659 0
5726 -5725 0
5726 -2659 0
-5727 5725 0
-5727 2659 0
5727 -5725 -2659 0
-5728 5726 2663 0
5728 -5726 0
5728 -2663 0
-5729 5727 5726 0
-5729 5727 2663 0
5729 -5727 0
5729 -5726 -2663 0
-5730 5727 0
-5730 2663 0
5730 -5727 -2663 0
-5731 2656 0
5731 -2656 0
-5732 5731 2660 0
5732 -5731 0
5732 -2660 0
-5733 5731 0
-5733 2660 0
5733 -5731 -2660 0
-5734 5732 2664 0
5734 -5732 0
5734 -2664 0
-5735 5733 5732 0
-5735 5733 2664 0
5735 -5733 0
5735 -5732 -2664 0
-5736 5733 0
-5736 2664 0
5736 -5733 -2664 0
-5734 5728 0
5734 -5728 0
-5735 5729 0
5735 -5729 0
-5736 5730 0
5736 -5730 0
-5737 2667 0
5737 -2667 0
-5738 5737 2671 0
5738 -5737 0
5738 -2671 0
-5739 5737 0
-5739 2671 0
5739 -5737 -2671 0
-5740 5738 2675 0
5740 -5738 0
5740 -2675 0
-5741 5739 5738 0
-5741 5739 2675 0
5741 -5739 0
5741 -5738 -2675 0
-5742 5739 0
-5742 2675 0
5742 -5739 -2675 0
-5743 2668 0
5743 -2668 0
-5744 5743 2672 0
5744 -5743 0
5744 -2672 0
-5745 5743 0
-5745 2672 0
5745 -5743 -2672 0
-5746 5744 2676 0
5746 -5744 0
5746 -2676 0
-5747 5745 5744 0
-5747 5745 2676 0
5747 -5745 0
5747 -5744 -2676 0
-5748 5745 0
-5748 2676 0
5748 -5745 -2676 0
-5746 5740 0
5746 -5740 0
-5747 5741 0
5747 -5741 0
-5748 5742 0
5748 -5742 0
-5749 2679 0
5749 -2679 0
-5750 5749 2683 0
5750 -5749 0
5750 -2683 0
-5751 5749 0
-5751 2683 0
5751 -5749 -2683 0
-5752 5750 2687 0
5752 -5750 0
5752 -2687 0
-5753 5751 5750 0
-5753 5751 2687 0
5753 -5751 0
5753 -5750 -2687 0
-5754 5751 0
-5754 2687 0
5754 -5751 -2687 0
-5755 2680 0
5755 -2680 0
-5756 5755 2684 0
5756 -5755 0
5756 -2684 0
-5757 5755 0
-5757 2684 0
5757 -5755 -2684 0
-5758 5756 2688 0
5758 -5756 0
5758 -2688 0
-5759 5757 5756 0
-5759 5757 2688 0
5759 -5757 0
5759 -5756 -2688 0
-5760 5757 0
-5760 2688 0
5760 -5757 -2688 0
-5758 5752 0
5758 -5752 0
-5759 5753 0
5759 -5753 0
-5760 5754 0
5760 -5754 0
-5761 2691 0
5761 -2691 0
-5762 5761 2695 0
5762 -5761 0
5762 -2695 0
-5763 5761 0
-5763 2695 0
5763 -5761 -2695 0
-5764 5762 2699 0
5764 -5762 0
5764 -2699 0
-5765 5763 5762 0
-5765 5763 2699 0
5765 -5763 0
5765 -5762 -2699 0
-5766 5763 0
-5766 2699 0
5766 -5763 -2699 0
-5767 2692 0
5767 -2692 0
-5768 5767 2696 0
5768 -5767 0
5768 -2696 0
-5769 5767 0
-5769 2696 0
5769 -5767 -2696 0
-5770 5768 2700 0
5770 -5768 0
5770 -2700 0
-5771 5769 5768 0
-5771 5769 2700 0
5771 -5769 0
5771 -5768 -2700 0
-5772 5769 0
-5772 2700 0
5772 -5769 -2700 0
-5770 5764 0
5770 -5764 0
-5771 5765 0
5771 -5765 0
-5772 5766 0
5772 -5766 0
-5773 2703 0
5773 -2703 0
-5774 5773 2707 0
5774 -5773 0
5774 -2707 0
-5775 5773 0
-5775 2707 0
5775 -5773 -2707 0
-5776 5774 2711 0
5776 -5774 0
5776 -2711 0
-5777 5775 5774 0
-5777 5775 2711 0
5777 -5775 0
5777 -5774 -2711 0
-5778 5775 0
-5778 2711 0
5778 -5775 -2711 0
-5779 2704 0
5779 -2704 0
-5780 5779 2708 0
5780 -5779 0
5780 -2708 0
-5781 5779 0
-5781 2708 0
5781 -5779 -2708 0
-5782 5780 2712 0
5782 -5780 0
5782 -2712 0
-5783 5781 5780 0
-5783 5781 2712 0
5783 -5781 0
5783 -5780 -2712 0
-5784 5781 0
-5784 2712 0
5784 -5781 -2712 0
-5782 5776 0
5782 -5776 0
-5783 5777 0
5783 -5777 0
-5784 5778 0
5784 -5778 0
-5785 2715 0
5785 -2715 0
-5786 5785 2719 0
5786 -5785 0
5786 -2719 0
-5787 5785 0
-5787 2719 0
5787 -5785 -2719 0
-5788 5786 2723 0
5788 -5786 0
5788 -2723 0
-5789 5787 5786 0
-5789 5787 2723 0
5789 -5787 0
5789 -5786 -2723 0
-5790 5787 0
-5790 2723 0
5790 -5787 -2723 0
-5791 2716 0
5791 -2716 0
-5792 5791 2720 0
5792 -5791 0
5792 -2720 0
-5793 5791 0
-5793 2720 0
5793 -5791 -2720 0
-5794 5792 2724 0
5794 -5792 0
5794 -2724 0
-5795 5793 5792 0
-5795 5793 2724 0
5795 -5793 0
5795 -5792 -2724 0
-5796 5793 0
-5796 2724 0
5796 -5793 -2724 0
-5794 5788 0
5794 -5788 0
-5795 5789 0
5795 -5789 0
-5796 5790 0
5796 -5790 0
-5797 2727 0
5797 -2727 0
-5798 5797 2731 0
5798 -5797 0
5798 -2731 0
-5799 5797 0
-5799 2731 0
5799 -5797 -2731 0
-5800 5798 2735 0
5800 -5798 0
5800 -2735 0
-5801 5799 5798 0
-5801 5799 2735 0
5801 -5799 0
5801 -5798 -2735 0
-5802 5799 0
-5802 2735 0
5802 -5799 -2735 0
-5803 2728 0
5803 -2728 0
-5804 5803 2732 0
5804 -5803 0
5804 -2732 0
-5805 5803 0
-5805 2732 0
5805 -5803 -2732 0
-5806 5804 2736 0
5806 -5804 0
5806 -2736 0
-5807 5805 5804 0
-5807 5805 2736 0
5807 -5805 0
5807 -5804 -2736 0
-5808 5805 0
-5808 2736 0
5808 -5805 -2736 0
-5806 5800 0
5806 -5800 0
-5807 5801 0
5807 -5801 0
-5808 5802 0
5808 -5802 0
-5809 2739 0
5809 -2739 0
-5810 5809 2743 0
5810 -5809 0
5810 -2743 0
-5811 5809 0
-5811 2743 0
5811 -5809 -2743 0
-5812 5810 2747 0
5812 -5810 0
5812 -2747 0
-5813 5811 5810 0
-5813 5811 2747 0
5813 -5811 0
5813 -5810 -2747 0
-5814 5811 0
-5814 2747 0
5814 -5811 -2747 0
-5815 2740 0
5815 -2740 0
-5816 5815 2744 0
5816 -5815 0
5816 -2744 0
-5817 5815 0
-5817 2744 0
5817 -5815 -2744 0
-5818 5816 2748 0
5818 -5816 0
5818 -2748 0
-5819 5817 5816 0
-5819 5817 2748 0
5819 -5817 0
5819 -5816 -2748 0
-5820 5817 0
-5820 2748 0
5820 -5817 -2748 0
-5818 5812 0
5818 -5812 0
-5819 5813 0
5819 -5813 0
-5820 5814 0
5820 -5814 0
-5821 2751 0
5821 -2751 0
-5822 5821 2755 0
5822 -5821 0
5822 -2755 0
-5823 5821 0
-5823 2755 0
5823 -5821 -2755 0
-5824 5822 2759 0
5824 -5822 0
5824 -2759 0
-5825 5823 5822 0
-5825 5823 2759 0
5825 -5823 0
5825 -5822 -2759 0
-5826 5823 0
-5826 2759 0
5826 -5823 -2759 0
-5827 2752 0
5827 -2752 0
-5828 5827 2756 0
5828 -5827 0
5828 -2756 0
-5829 5827 0
-5829 2756 0
5829 -5827 -2756 0
-5830 5828 2760 0
5830 -5828 0
5830 -2760 0
-5831 5829 5828 0
-5831 5829 2760 0
5831 -5829 0
5831 -5828 -2760 0
-5832 5829 0
-5832 2760 0
5832 -5829 -2760 0
-5830 5824 0
5830 -5824 0
-5831 5825 0
5831 -5825 0
-5832 5826 0
5832 -5826 0
-5833 2763 0
5833 -2763 0
-5834 5833 2767 0
5834 -5833 0
5834 -2767 0
-5835 5833 0
-5835 2767 0
5835 -5833 -2767 0
-5836 5834 2771 0
5836 -5834 0
5836 -2771 0
-5837 5835 5834 0
-5837 5835 2771 0
5837 -5835 0
5837 -5834 -2771 0
-5838 5835 0
-5838 2771 0
5838 -5835 -2771 0
-5839 2764 0
5839 -2764 0
-5840 5839 2768 0
5840 -5839 0
5840 -2768 0
-5841 5839 0
-5841 2768 0
5841 -5839 -2768 0
-5842 5840 2772 0
5842 -5840 0
5842 -2772 0
-5843 5841 5840 0
-5843 5841 2772 0
5843 -5841 0
5843 -5840 -2772 0
-5844 5841 0
-5844 2772 0
5844 -5841 -2772 0
-5842 5836 0
5842 -5836 0
-5843 5837 0
5843 -5837 0
-5844 5838 0
5844 -5838 0
-5845 2775 0
5845 -2775 0
-5846 5845 2779 0
5846 -5845 0
5846 -2779 0
-5847 5845 0
-5847 2779 0
5847 -5845 -2779 0
-5848 5846 2783 0
5848 -5846 0
5848 -2783 0
-5849 5847 5846 0
-5849 5847 2783 0
5849 -5847 0
5849 -5846 -2783 0
-5850 5847 0
-5850 2783 0
5850 -5847 -2783 0
-5851 2776 0
5851 -2776 0
-5852 5851 2780 0
5852 -5851 0
5852 -2780 0
-5853 5851 0
-5853 2780 0
5853 -5851 -2780 0
-5854 5852 2784 0
5854 -5852 0
5854 -2784 0
-5855 5853 5852 0
-5855 5853 2784 0
5855 -5853 0
5855 -5852 -2784 0
-5856 5853 0
-5856 2784 0
5856 -5853 -2784 0
-5854 5848 0
5854 -5848 0
-5855 5849 0
5855 -5849 0
-5856 5850 0
5856 -5850 0
-5857 2787 0
5857 -2787 0
-5858 5857 2791 0
5858 -5857 0
5858 -2791 0
-5859 5857 0
-5859 2791 0
5859 -5857 -2791 0
-5860 5858 2795 0
5860 -5858 0
5860 -2795 0
-5861 5859 5858 0
-5861 5859 2795 0
5861 -5859 0
5861 -5858 -2795 0
-5862 5859 0
-5862 2795 0
5862 -5859 -2795 0
-5863 2788 0
5863 -2788 0
-5864 5863 2792 0
5864 -5863 0
5864 -2792 0
-5865 5863 0
-5865 2792 0
5865 -5863 -2792 0
-5866 5864 2796 0
5866 -5864 0
5866 -2796 0
-5867 5865 5864 0
-5867 5865 2796 0
5867 -5865 0
5867 -5864 -2796 0
-5868 5865 0
-5868 2796 0
5868 -5865 -2796 0
-5866 5860 0
5866 -5860 0
-5867 5861 0
5867 -5861 0
-5868 5862 0
5868 -5862 0
-5869 2799 0
5869 -2799 0
-5870 5869 2803 0
5870 -5869 0
5870 -2803 0
-5871 5869 0
-5871 2803 0
5871 -5869 -2803 0
-5872 5870 2807 0
5872 -5870 0
5872 -2807 0
-5873 5871 5870 0
-5873 5871 2807 0
5873 -5871 0
5873 -5870 -2807 0
-5874 5871 0
-5874 2807 0
5874 -5871 -2807 0
-5875 2800 0
5875 -2800 0
-5876 5875 2804 0
5876 -5875 0
5876 -2804 0
-5877 5875 0
-5877 2804 0
5877 -5875 -2804 0
-5878 5876 2808 0
5878 -5876 0
5878 -2808 0
-5879 5877 5876 0
-5879 5877 2808 0
5879 -5877 0
5879 -5876 -2808 0
-5880 5877 0
-5880 2808 0
5880 -5877 -2808 0
-5878 5872 0
5878 -5872 0
-5879 5873 0
5879 -5873 0
-5880 5874 0
5880 -5874 0
-5881 2811 0
5881 -2811 0
-5882 5881 2815 0
5882 -5881 0
5882 -2815 0
-5883 5881 0
-5883 2815 0
5883 -5881 -2815 0
-5884 5882 2819 0
5884 -5882 0
5884 -2819 0
-5885 5883 5882 0
-5885 5883 2819 0
5885 -5883 0
5885 -5882 -2819 0
-5886 5883 0
-5886 2819 0
5886 -5883 -2819 0
-5887 2812 0
5887 -2812 0
-5888 5887 2816 0
5888 -5887 0
5888 -2816 0
-5889 5887 0
-5889 2816 0
5889 -5887 -2816 0
-5890 5888 2820 0
5890 -5888 0
5890 -2820 0
-5891 5889 5888 0
-5891 5889 2820 0
5891 -5889 0
5891 -5888 -2820 0
-5892 5889 0
-5892 2820 0
5892 -5889 -2820 0
-5890 5884 0
5890 -5884 0
-5891 5885 0
5891 -5885 0
-5892 5886 0
5892 -5886 0
-5893 2823 0
5893 -2823 0
-5894 5893 2827 0
5894 -5893 0
5894 -2827 0
-5895 5893 0
-5895 2827 0
5895 -5893 -2827 0
-5896 5894 2831 0
5896 -5894 0
5896 -2831 0
-5897 5895 5894 0
-5897 5895 2831 0
5897 -5895 0
5897 -5894 -2831 0
-5898 5895 0
-5898 2831 0
5898 -5895 -2831 0
-5899 2824 0
5899 -2824 0
-5900 5899 2828 0
5900 -5899 0
5900 -2828 0
-5901 5899 0
-5901 2828 0
5901 -5899 -2828 0
-5902 5900 2832 0
5902 -5900 0
5902 -2832 0
-5903 5901 5900 0
-5903 5901 2832 0
5903 -5901 0
5903 -5900 -2832 0
-5904 5901 0
-5904 2832 0
5904 -5901 -2832 0
-5902 5896 0
5902 -5896 0
-5903 5897 0
5903 -5897 0
-5904 5898 0
5904 -5898 0
-5905 2835 0
5905 -2835 0
-5906 5905 2839 0
5906 -5905 0
5906 -2839 0
-5907 5905 0
-5907 2839 0
5907 -5905 -2839 0
-5908 5906 2843 0
5908 -5906 0
5908 -2843 0
-5909 5907 5906 0
-5909 5907 2843 0
5909 -5907 0
5909 -5906 -2843 0
-5910 5907 0
-5910 2843 0
5910 -5907 -2843 0
-5911 2836 0
5911 -2836 0
-5912 5911 2840 0
5912 -5911 0
5912 -2840 0
-5913 5911 0
-5913 2840 0
5913 -5911 -2840 0
-5914 5912 2844 0
5914 -5912 0
5914 -2844 0
-5915 5913 5912 0
-5915 5913 2844 0
5915 -5913 0
5915 -5912 -2844 0
-5916 5913 0
-5916 2844 0
5916 -5913 -2844 0
-5914 5908 0
5914 -5908 0
-5915 5909 0
5915 -5909 0
-5916 5910 0
5916 -5910 0
-5917 2847 0
5917 -2847 0
-5918 5917 2851 0
5918 -5917 0
5918 -2851 0
-5919 5917 0
-5919 2851 0
5919 -5917 -2851 0
-5920 5918 2855 0
5920 -5918 0
5920 -2855 0
-5921 5919 5918 0
-5921 5919 2855 0
5921 -5919 0
5921 -5918 -2855 0
-5922 5919 0
-5922 2855 0
5922 -5919 -2855 0
-5923 2848 0
5923 -2848 0
-5924 5923 2852 0
5924 -5923 0
5924 -2852 0
-5925 5923 0
-5925 2852 0
5925 -5923 -2852 0
-5926 5924 2856 0
5926 -5924 0
5926 -2856 0
-5927 5925 5924 0
-5927 5925 2856 0
5927 -5925 0
5927 -5924 -2856 0
-5928 5925 0
-5928 2856 0
5928 -5925 -2856 0
-5926 5920 0
5926 -5920 0
-5927 5921 0
5927 -5921 0
-5928 5922 0
5928 -5922 0
-5929 2859 0
5929 -2859 0
-5930 5929 2863 0
5930 -5929 0
5930 -2863 0
-5931 5929 0
-5931 2863 0
5931 -5929 -2863 0
-5932 5930 2867 0
5932 -5930 0
5932 -2867 0
-5933 5931 5930 0
-5933 5931 2867 0
5933 -5931 0
5933 -5930 -2867 0
-5934 5931 0
-5934 2867 0
5934 -5931 -2867 0
-5935 2860 0
5935 -2860 0
-5936 5935 2864 0
5936 -5935 0
5936 -2864 0
-5937 5935 0
-5937 2864 0
5937 -5935 -2864 0
-5938 5936 2868 0
5938 -5936 0
5938 -2868 0
-5939 5937 5936 0
-5939 5937 2868 0
5939 -5937 0
5939 -5936 -2868 0
-5940 5937 0
-5940 2868 0
5940 -5937 -2868 0
-5938 5932 0
5938 -5932 0
-5939 5933 0
5939 -5933 0
-5940 5934 0
5940 -5934 0
-5941 2871 0
5941 -2871 0
-5942 5941 2875 0
5942 -5941 0
5942 -2875 0
-5943 5941 0
-5943 2875 0
5943 -5941 -2875 0
-5944 5942 2879 0
5944 -5942 0
5944 -2879 0
-5945 5943 5942 0
-5945 5943 2879 0
5945 -5943 0
5945 -5942 -2879 0
-5946 5943 0
-5946 2879 0
5946 -5943 -2879 0
-5947 2872 0
5947 -2872 0
-5948 5947 2876 0
5948 -5947 0
5948 -2876 0
-5949 5947 0
-5949 2876 0
5949 -5947 -2876 0
-5950 5948 2880 0
5950 -5948 0
5950 -2880 0
-5951 5949 5948 0
-5951 5949 2880 0
5951 -5949 0
5951 -5948 -2880 0
-5952 5949 0
-5952 2880 0
5952 -5949 -2880 0
-5950 5944 0
5950 -5944 0
-5951 5945 0
5951 -5945 0
-5952 5946 0
5952 -5946 0
-5953 2883 0
5953 -2883 0
-5954 5953 2887 0
5954 -5953 0
5954 -2887 0
-5955 5953 0
-5955 2887 0
5955 -5953 -2887 0
-5956 5954 2891 0
5956 -5954 0
5956 -2891 0
-5957 5955 5954 0
-5957 5955 2891 0
5957 -5955 0
5957 -5954 -2891 0
-5958 5955 0
-5958 2891 0
5958 -5955 -2891 0
-5959 2884 0
5959 -2884 0
-5960 5959 2888 0
5960 -5959 0
5960 -2888 0
-5961 5959 0
-5961 2888 0
5961 -5959 -2888 0
-5962 5960 2892 0
5962 -5960 0
5962 -2892 0
-5963 5961 5960 0
-5963 5961 2892 0
5963 -5961 0
5963 -5960 -2892 0
-5964 5961 0
-5964 2892 0
5964 -5961 -2892 0
-5962 5956 0
5962 -5956 0
-5963 5957 0
5963 -5957 0
-5964 5958 0
5964 -5958 0
-5965 2895 0
5965 -2895 0
-5966 5965 2899 0
5966 -5965 0
5966 -2899 0
-5967 5965 0
-5967 2899 0
5967 -5965 -2899 0
-5968 5966 2903 0
5968 -5966 0
5968 -2903 0
-5969 5967 5966 0
-5969 5967 2903 0
5969 -5967 0
5969 -5966 -2903 0
-5970 5967 0
-5970 2903 0
5970 -5967 -2903 0
-5971 2896 0
5971 -2896 0
-5972 5971 2900 0
5972 -5971 0
5972 -2900 0
-5973 5971 0
-5973 2900 0
5973 -5971 -2900 0
-5974 5972 2904 0
5974 -5972 0
5974 -2904 0
-5975 5973 5972 0
-5975 5973 2904 0
5975 -5973 0
5975 -5972 -2904 0
-5976 5973 0
-5976 2904 0
5976 -5973 -2904 0
-5974 5968 0
5974 -5968 0
-5975 5969 0
5975 -5969 0
-5976 5970 0
5976 -5970 0
-5977 2907 0
5977 -2907 0
-5978 5977 2911 0
5978 -5977 0
5978 -2911 0
-5979 5977 0
-5979 2911 0
5979 -5977 -2911 0
-5980 5978 2915 0
5980 -5978 0
5980 -2915 0
-5981 5979 5978 0
-5981 5979 2915 0
5981 -5979 0
5981 -5978 -2915 0
-5982 5979 0
-5982 2915 0
5982 -5979 -2915 0
-5983 2908 0
5983 -2908 0
-5984 5983 2912 0
5984 -5983 0
5984 -2912 0
-5985 5983 0
-5985 2912 0
5985 -5983 -2912 0
-5986 5984 2916 0
5986 -5984 0
5986 -2916 0
-5987 5985 5984 0
-5987 5985 2916 0
5987 -5985 0
5987 -5984 -2916 0
-5988 5985 0
-5988 2916 0
5988 -5985 -2916 0
-5986 5980 0
5986 -5980 0
-5987 5981 0
5987 -5981 0
-5988 5982 0
5988 -5982 0
-5989 2919 0
5989 -2919 0
-5990 5989 2923 0
5990 -5989 0
5990 -2923 0
-5991 5989 0
-5991 2923 0
5991 -5989 -2923 0
-5992 5990 2927 0
5992 -5990 0
5992 -2927 0
-5993 5991 5990 0
-5993 5991 2927 0
5993 -5991 0
5993 -5990 -2927 0
-5994 5991 0
-5994 2927 0
5994 -5991 -2927 0
-5995 2920 0
5995 -2920 0
-5996 5995 2924 0
5996 -5995 0
5996 -2924 0
-5997 5995 0
-5997 2924 0
5997 -5995 -2924 0
-5998 5996 2928 0
5998 -5996 0
5998 -2928 0
-5999 5997 5996 0
-5999 5997 2928 0
5999 -5997 0
5999 -5996 -2928 0
-6000 5997 0
-6000 2928 0
6000 -5997 -2928 0
-5998 5992 0
5998 -5992 0
-5999 5993 0
5999 -5993 0
-6000 5994 0
6000 -5994 0
-6001 2931 0
6001 -2931 0
-6002 6001 2935 0
6002 -6001 0
6002 -2935 0
-6003 6001 0
-6003 2935 0
6003 -6001 -2935 0
-6004 6002 2939 0
6004 -6002 0
6004 -2939 0
-6005 6003 6002 0
-6005 6003 2939 0
6005 -6003 0
6005 -6002 -2939 0
-6006 6003 0
-6006 2939 0
6006 -6003 -2939 0
-6007 2932 0
6007 -2932 0
-6008 6007 2936 0
6008 -6007 0
6008 -2936 0
-6009 6007 0
-6009 2936 0
6009 -6007 -2936 0
-6010 6008 2940 0
6010 -6008 0
6010 -2940 0
-6011 6009 6008 0
-6011 6009 2940 0
6011 -6009 0
6011 -6008 -2940 0
-6012 6009 0
-6012 2940 0
6012 -6009 -2940 0
-6010 6004 0
6010 -6004 0
-6011 6005 0
6011 -6005 0
-6012 6006 0
6012 -6006 0
-6013 2943 0
6013 -2943 0
-6014 6013 2947 0
6014 -6013 0
6014 -2947 0
-6015 6013 0
-6015 2947 0
6015 -6013 -2947 0
-6016 6014 2951 0
6016 -6014 0
6016 -2951 0
-6017 6015 6014 0
-6017 6015 2951 0
6017 -6015 0
6017 -6014 -2951 0
-6018 6015 0
-6018 2951 0
6018 -6015 -2951 0
-6019 2944 0
6019 -2944 0
-6020 6019 2948 0
6020 -6019 0
6020 -2948 0
-6021 6019 0
-6021 2948 0
6021 -6019 -2948 0
-6022 6020 2952 0
6022 -6020 0
6022 -2952 0
-6023 6021 6020 0
-6023 6021 2952 0
6023 -6021 0
6023 -6020 -2952 0
-6024 6021 0
-6024 2952 0
6024 -6021 -2952 0
-6022 6016 0
6022 -6016 0
-6023 6017 0
6023 -6017 0
-6024 6018 0
6024 -6018 0
-6025 2955 0
6025 -2955 0
-6026 6025 2959 0
6026 -6025 0
6026 -2959 0
-6027 6025 0
-6027 2959 0
6027 -6025 -2959 0
-6028 6026 2963 0
6028 -6026 0
6028 -2963 0
-6029 6027 6026 0
-6029 6027 2963 0
6029 -6027 0
6029 -6026 -2963 0
-6030 6027 0
-6030 2963 0
6030 -6027 -2963 0
-6031 2956 0
6031 -2956 0
-6032 6031 2960 0
6032 -6031 0
6032 -2960 0
-6033 6031 0
-6033 2960 0
6033 -6031 -2960 0
-6034 6032 2964 0
6034 -6032 0
6034 -2964 0
-6035 6033 6032 0
-6035 6033 2964 0
6035 -6033 0
6035 -6032 -2964 0
-6036 6033 0
-6036 2964 0
6036 -6033 -2964 0
-6034 6028 0
6034 -6028 0
-6035 6029 0
6035 -6029 0
-6036 6030 0
6036 -6030 0
-6037 2967 0
6037 -2967 0
-6038 6037 2971 0
6038 -6037 0
6038 -2971 0
-6039 6037 0
-6039 2971 0
6039 -6037 -2971 0
-6040 6038 2975 0
6040 -6038 0
6040 -2975 0
-6041 6039 6038 0
-6041 6039 2975 0
6041 -6039 0
6041 -6038 -2975 0
-6042 6039 0
-6042 2975 0
6042 -6039 -2975 0
-6043 2968 0
6043 -2968 0
-6044 6043 2972 0
6044 -6043 0
6044 -2972 0
-6045 6043 0
-6045 2972 0
6045 -6043 -2972 0
-6046 6044 2976 0
6046 -6044 0
6046 -2976 0
-6047 6045 6044 0
-6047 6045 2976 0
6047 -6045 0
6047 -6044 -2976 0
-6048 6045 0
-6048 2976 0
6048 -6045 -2976 0
-6046 6040 0
6046 -6040 0
-6047 6041 0
6047 -6041 0
-6048 6042 0
6048 -6042 0
-6049 2979 0
6049 -2979 0
-6050 6049 2983 0
6050 -6049 0
6050 -2983 0
-6051 6049 0
-6051 2983 0
6051 -6049 -2983 0
-6052 6050 2987 0
6052 -6050 0
6052 -2987 0
-6053 6051 6050 0
-6053 6051 2987 0
6053 -6051 0
6053 -6050 -2987 0
-6054 6051 0
-6054 2987 0
6054 -6051 -2987 0
-6055 2980 0
6055 -2980 0
-6056 6055 2984 0
6056 -6055 0
6056 -2984 0
-6057 6055 0
-6057 2984 0
6057 -6055 -2984 0
-6058 6056 2988 0
6058 -6056 0
6058 -2988 0
-6059 6057 6056 0
-6059 6057 2988 0
6059 -6057 0
6059 -6056 -2988 0
-6060 6057 0
-6060 2988 0
6060 -6057 -2988 0
-6058 6052 0
6058 -6052 0
-6059 6053 0
6059 -6053 0
-6060 6054 0
6060 -6054 0
-6061 2991 0
6061 -2991 0
-6062 6061 2995 0
6062 -6061 0
6062 -2995 0
-6063 6061 0
-6063 2995 0
6063 -6061 -2995 0
-6064 6062 2999 0
6064 -6062 0
6064 -2999 0
-6065 6063 6062 0
-6065 6063 2999 0
6065 -6063 0
6065 -6062 -2999 0
-6066 6063 0
-6066 2999 0
6066 -6063 -2999 0
-6067 2992 0
6067 -2992 0
-6068 6067 2996 0
6068 -6067 0
6068 -2996 0
-6069 6067 0
-6069 2996 0
6069 -6067 -2996 0
-6070 6068 3000 0
6070 -6068 0
6070 -3000 0
-6071 6069 6068 0
-6071 6069 3000 0
6071 -6069 0
6071 -6068 -3000 0
-6072 6069 0
-6072 3000 0
6072 -6069 -3000 0
-6070 6064 0
6070 -6064 0
-6071 6065 0
6071 -6065 0
-6072 6066 0
6072 -6066 0
-6073 3003 0
6073 -3003 0
-6074 6073 3007 0
6074 -6073 0
6074 -3007 0
-6075 6073 0
-6075 3007 0
6075 -6073 -3007 0
-6076 6074 3011 0
6076 -6074 0
6076 -3011 0
-6077 6075 6074 0
-6077 6075 3011 0
6077 -6075 0
6077 -6074 -3011 0
-6078 6075 0
-6078 3011 0
6078 -6075 -3011 0
-6079 3004 0
6079 -3004 0
-6080 6079 3008 0
6080 -6079 0
6080 -3008 0
-6081 6079 0
-6081 3008 0
6081 -6079 -3008 0
-6082 6080 3012 0
6082 -6080 0
6082 -3012 0
-6083 6081 6080 0
-6083 6081 3012 0
6083 -6081 0
6083 -6080 -3012 0
-6084 6081 0
-6084 3012 0
6084 -6081 -3012 0
-6082 6076 0
6082 -6076 0
-6083 6077 0
6083 -6077 0
-6084 6078 0
6084 -6078 0
-6085 3015 0
6085 -3015 0
-6086 6085 3019 0
6086 -6085 0
6086 -3019 0
-6087 6085 0
-6087 3019 0
6087 -6085 -3019 0
-6088 6086 3023 0
6088 -6086 0
6088 -3023 0
-6089 6087 6086 0
-6089 6087 3023 0
6089 -6087 0
6089 -6086 -3023 0
-6090 6087 0
-6090 3023 0
6090 -6087 -3023 0
-6091 3016 0
6091 -3016 0
-6092 6091 3020 0
6092 -6091 0
6092 -3020 0
-6093 6091 0
-6093 3020 0
6093 -6091 -3020 0
-6094 6092 3024 0
6094 -6092 0
6094 -3024 0
-6095 6093 6092 0
-6095 6093 3024 0
6095 -6093 0
6095 -6092 -3024 0
-6096 6093 0
-6096 3024 0
6096 -6093 -3024 0
-6094 6088 0
6094 -6088 0
-6095 6089 0
6095 -6089 0
-6096 6090 0
6096 -6090 0
-6097 3027 0
6097 -3027 0
-6098 6097 3031 0
6098 -6097 0
6098 -3031 0
-6099 6097 0
-6099 3031 0
6099 -6097 -3031 0
-6100 6098 3035 0
6100 -6098 0
6100 -3035 0
-6101 6099 6098 0
-6101 6099 3035 0
6101 -6099 0
6101 -6098 -3035 0
-6102 6099 0
-6102 3035 0
6102 -6099 -3035 0
-6103 3028 0
6103 -3028 0
-6104 6103 3032 0
6104 -6103 0
6104 -3032 0
-6105 6103 0
-6105 3032 0
6105 -6103 -3032 0
-6106 6104 3036 0
6106 -6104 0
6106 -3036 0
-6107 6105 6104 0
-6107 6105 3036 0
6107 -6105 0
6107 -6104 -3036 0
-6108 6105 0
-6108 3036 0
6108 -6105 -3036 0
-6106 6100 0
6106 -6100 0
-6107 6101 0
6107 -6101 0
-6108 6102 0
6108 -6102 0
-6109 3039 0
6109 -3039 0
-6110 6109 3043 0
6110 -6109 0
6110 -3043 0
-6111 6109 0
-6111 3043 0
6111 -6109 -3043 0
-6112 6110 3047 0
6112 -6110 0
6112 -3047 0
-6113 6111 6110 0
-6113 6111 3047 0
6113 -6111 0
6113 -6110 -3047 0
-6114 6111 0
-6114 3047 0
6114 -6111 -3047 0
-6115 3040 0
6115 -3040 0
-6116 6115 3044 0
6116 -6115 0
6116 -3044 0
-6117 6115 0
-6117 3044 0
6117 -6115 -3044 0
-6118 6116 3048 0
6118 -6116 0
6118 -3048 0
-6119 6117 6116 0
-6119 6117 3048 0
6119 -6117 0
6119 -6116 -3048 0
-6120 6117 0
-6120 3048 0
6120 -6117 -3048 0
-6118 6112 0
6118 -6112 0
-6119 6113 0
6119 -6113 0
-6120 6114 0
6120 -6114 0
-6121 3051 0
6121 -3051 0
-6122 6121 3055 0
6122 -6121 0
6122 -3055 0
-6123 6121 0
-6123 3055 0
6123 -6121 -3055 0
-6124 6122 3059 0
6124 -6122 0
6124 -3059 0
-6125 6123 6122 0
-6125 6123 3059 0
6125 -6123 0
6125 -6122 -3059 0
-6126 6123 0
-6126 3059 0
6126 -6123 -3059 0
-6127 3052 0
6127 -3052 0
-6128 6127 3056 0
6128 -6127 0
6128 -3056 0
-6129 6127 0
-6129 3056 0
6129 -6127 -3056 0
-6130 6128 3060 0
6130 -6128 0
6130 -3060 0
-6131 6129 6128 0
-6131 6129 3060 0
6131 -6129 0
6131 -6128 -3060 0
-6132 6129 0
-6132 3060 0
6132 -6129 -3060 0
-6130 6124 0
6130 -6124 0
-6131 6125 0
6131 -6125 0
-6132 6126 0
6132 -6126 0
-6133 3063 0
6133 -3063 0
-6134 6133 3067 0
6134 -6133 0
6134 -3067 0
-6135 6133 0
-6135 3067 0
6135 -6133 -3067 0
-6136 6134 3071 0
6136 -6134 0
6136 -3071 0
-6137 6135 6134 0
-6137 6135 3071 0
6137 -6135 0
6137 -6134 -3071 0
-6138 6135 0
-6138 3071 0
6138 -6135 -3071 0
-6139 3064 0
6139 -3064 0
-6140 6139 3068 0
6140 -6139 0
6140 -3068 0
-6141 6139 0
-6141 3068 0
6141 -6139 -3068 0
-6142 6140 3072 0
6142 -6140 0
6142 -3072 0
-6143 6141 6140 0
-6143 6141 3072 0
6143 -6141 0
6143 -6140 -3072 0
-6144 6141 0
-6144 3072 0
6144 -6141 -3072 0
-6142 6136 0
6142 -6136 0
-6143 6137 0
6143 -6137 0
-6144 6138 0
6144 -6138 0
-6145 3075 0
6145 -3075 0
-6146 6145 3079 0
6146 -6145 0
6146 -3079 0
-6147 6145 0
-6147 3079 0
6147 -6145 -3079 0
-6148 6146 3083 0
6148 -6146 0
6148 -3083 0
-6149 6147 6146 0
-6149 6147 3083 0
6149 -6147 0
6149 -6146 -3083 0
-6150 6147 0
-6150 3083 0
6150 -6147 -3083 0
-6151 3076 0
6151 -3076 0
-6152 6151 3080 0
6152 -6151 0
6152 -3080 0
-6153 6151 0
-6153 3080 0
6153 -6151 -3080 0
-6154 6152 3084 0
6154 -6152 0
6154 -3084 0
-6155 6153 6152 0
-6155 6153 3084 0
6155 -6153 0
6155 -6152 -3084 0
-6156 6153 0
-6156 3084 0
6156 -6153 -3084 0
-6154 6148 0
6154 -6148 0
-6155 6149 0
6155 -6149 0
-6156 6150 0
6156 -6150 0
-6157 3087 0
6157 -3087 0
-6158 6157 3091 0
6158 -6157 0
6158 -3091 0
-6159 6157 0
-6159 3091 0
6159 -6157 -3091 0
-6160 6158 3095 0
6160 -6158 0
6160 -3095 0
-6161 6159 6158 0
-6161 6159 3095 0
6161 -6159 0
6161 -6158 -3095 0
-6162 6159 0
-6162 3095 0
6162 -6159 -3095 0
-6163 3088 0
6163 -3088 0
-6164 6163 3092 0
6164 -6163 0
6164 -3092 0
-6165 6163 0
-6165 3092 0
6165 -6163 -3092 0
-6166 6164 3096 0
6166 -6164 0
6166 -3096 0
-6167 6165 6164 0
-6167 6165 3096 0
6167 -6165 0
6167 -6164 -3096 0
-6168 6165 0
-6168 3096 0
6168 -6165 -3096 0
-6166 6160 0
6166 -6160 0
-6167 6161 0
6167 -6161 0
-6168 6162 0
6168 -6162 0
-6169 3099 0
6169 -3099 0
-6170 6169 3103 0
6170 -6169 0
6170 -3103 0
-6171 6169 0
-6171 3103 0
6171 -6169 -3103 0
-6172 6170 3107 0
6172 -6170 0
6172 -3107 0
-6173 6171 6170 0
-6173 6171 3107 0
6173 -6171 0
6173 -6170 -3107 0
-6174 6171 0
-6174 3107 0
6174 -6171 -3107 0
-6175 3100 0
6175 -3100 0
-6176 6175 3104 0
6176 -6175 0
6176 -3104 0
-6177 6175 0
-6177 3104 0
6177 -6175 -3104 0
-6178 6176 3108 0
6178 -6176 0
6178 -3108 0
-6179 6177 6176 0
-6179 6177 3108 0
6179 -6177 0
6179 -6176 -3108 0
-6180 6177 0
-6180 3108 0
6180 -6177 -3108 0
-6178 6172 0
6178 -6172 0
-6179 6173 0
6179 -6173 0
-6180 6174 0
6180 -6174 0
-6181 3111 0
6181 -3111 0
-6182 6181 3115 0
6182 -6181 0
6182 -3115 0
-6183 6181 0
-6183 3115 0
6183 -6181 -3115 0
-6184 6182 3119 0
6184 -6182 0
6184 -3119 0
-6185 6183 6182 0
-6185 6183 3119 0
6185 -6183 0
6185 -6182 -3119 0
-6186 6183 0
-6186 3119 0
6186 -6183 -3119 0
-6187 3112 0
6187 -3112 0
-6188 6187 3116 0
6188 -6187 0
6188 -3116 0
-6189 6187 0
-6189 3116 0
6189 -6187 -3116 0
-6190 6188 3120 0
6190 -6188 0
6190 -3120 0
-6191 6189 6188 0
-6191 6189 3120 0
6191 -6189 0
6191 -6188 -3120 0
-6192 6189 0
-6192 3120 0
6192 -6189 -3120 0
-6190 6184 0
6190 -6184 0
-6191 6185 0
6191 -6185 0
-6192 6186 0
6192 -6186 0
-6193 3123 0
6193 -3123 0
-6194 6193 3127 0
6194 -6193 0
6194 -3127 0
-6195 6193 0
-6195 3127 0
6195 -6193 -3127 0
-6196 6194 3131 0
6196 -6194 0
6196 -3131 0
-6197 6195 6194 0
-6197 6195 3131 0
6197 -6195 0
6197 -6194 -3131 0
-6198 6195 0
-6198 3131 0
6198 -6195 -3131 0
-6199 3124 0
6199 -3124 0
-6200 6199 3128 0
6200 -6199 0
6200 -3128 0
-6201 6199 0
-6201 3128 0
6201 -6199 -3128 0
-6202 6200 3132 0
6202 -6200 0
6202 -3132 0
-6203 6201 6200 0
-6203 6201 3132 0
6203 -6201 0
6203 -6200 -3132 0
-6204 6201 0
-6204 3132 0
6204 -6201 -3132 0
-6202 6196 0
6202 -6196 0
-6203 6197 0
6203 -6197 0
-6204 6198 0
6204 -6198 0
-6205 3135 0
6205 -3135 0
-6206 6205 3139 0
6206 -6205 0
6206 -3139 0
-6207 6205 0
-6207 3139 0
6207 -6205 -3139 0
-6208 6206 3143 0
6208 -6206 0
6208 -3143 0
-6209 6207 6206 0
-6209 6207 3143 0
6209 -6207 0
6209 -6206 -3143 0
-6210 6207 0
-6210 3143 0
6210 -6207 -3143 0
-6211 3136 0
6211 -3136 0
-6212 6211 3140 0
6212 -6211 0
6212 -3140 0
-6213 6211 0
-6213 3140 0
6213 -6211 -3140 0
-6214 6212 3144 0
6214 -6212 0
6214 -3144 0
-6215 6213 6212 0
-6215 6213 3144 0
6215 -6213 0
6215 -6212 -3144 0
-6216 6213 0
-6216 3144 0
6216 -6213 -3144 0
-6214 6208 0
6214 -6208 0
-6215 6209 0
6215 -6209 0
-6216 6210 0
6216 -6210 0
-6217 3147 0
6217 -3147 0
-6218 6217 3151 0
6218 -6217 0
6218 -3151 0
-6219 6217 0
-6219 3151 0
6219 -6217 -3151 0
-6220 6218 3155 0
6220 -6218 0
6220 -3155 0
-6221 6219 6218 0
-6221 6219 3155 0
6221 -6219 0
6221 -6218 -3155 0
-6222 6219 0
-6222 3155 0
6222 -6219 -3155 0
-6223 3148 0
6223 -3148 0
-6224 6223 3152 0
6224 -6223 0
6224 -3152 0
-6225 6223 0
-6225 3152 0
6225 -6223 -3152 0
-6226 6224 3156 0
6226 -6224 0
6226 -3156 0
-6227 6225 6224 0
-6227 6225 3156 0
6227 -6225 0
6227 -6224 -3156 0
-6228 6225 0
-6228 3156 0
6228 -6225 -3156 0
-6226 6220 0
6226 -6220 0
-6227 6221 0
6227 -6221 0
-6228 6222 0
6228 -6222 0
-6229 3159 0
6229 -3159 0
-6230 6229 3163 0
6230 -6229 0
6230 -3163 0
-6231 6229 0
-6231 3163 0
6231 -6229 -3163 0
-6232 6230 3167 0
6232 -6230 0
6232 -3167 0
-6233 6231 6230 0
-6233 6231 3167 0
6233 -6231 0
6233 -6230 -3167 0
-6234 6231 0
-6234 3167 0
6234 -6231 -3167 0
-6235 3160 0
6235 -3160 0
-6236 6235 3164 0
6236 -6235 0
6236 -3164 0
-6237 6235 0
-6237 3164 0
6237 -6235 -3164 0
-6238 6236 3168 0
6238 -6236 0
6238 -3168 0
-6239 6237 6236 0
-6239 6237 3168 0
6239 -6237 0
6239 -6236 -3168 0
-6240 6237 0
-6240 3168 0
6240 -6237 -3168 0
-6238 6232 0
6238 -6232 0
-6239 6233 0
6239 -6233 0
-6240 6234 0
6240 -6234 0
-6241 3171 0
6241 -3171 0
-6242 6241 3175 0
6242 -6241 0
6242 -3175 0
-6243 6241 0
-6243 3175 0
6243 -6241 -3175 0
-6244 6242 3179 0
6244 -6242 0
6244 -3179 0
-6245 6243 6242 0
-6245 6243 3179 0
6245 -6243 0
6245 -6242 -3179 0
-6246 6243 0
-6246 3179 0
6246 -6243 -3179 0
-6247 3172 0
6247 -3172 0
-6248 6247 3176 0
6248 -6247 0
6248 -3176 0
-6249 6247 0
-6249 3176 0
6249 -6247 -3176 0
-6250 6248 3180 0
6250 -6248 0
6250 -3180 0
-6251 6249 6248 0
-6251 6249 3180 0
6251 -6249 0
6251 -6248 -3180 0
-6252 6249 0
-6252 3180 0
6252 -6249 -3180 0
-6250 6244 0
6250 -6244 0
-6251 6245 0
6251 -6245 0
-6252 6246 0
6252 -6246 0
-6253 3183 0
6253 -3183 0
-6254 6253 3187 0
6254 -6253 0
6254 -3187 0
-6255 6253 0
-6255 3187 0
6255 -6253 -3187 0
-6256 6254 3191 0
6256 -6254 0
6256 -3191 0
-6257 6255 6254 0
-6257 6255 3191 0
6257 -6255 0
6257 -6254 -3191 0
-6258 6255 0
-6258 3191 0
6258 -6255 -3191 0
-6259 3184 0
6259 -3184 0
-6260 6259 3188 0
6260 -6259 0
6260 -3188 0
-6261 6259 0
-6261 3188 0
6261 -6259 -3188 0
-6262 6260 3192 0
6262 -6260 0
6262 -3192 0
-6263 6261 6260 0
-6263 6261 3192 0
6263 -6261 0
6263 -6260 -3192 0
-6264 6261 0
-6264 3192 0
6264 -6261 -3192 0
-6262 6256 0
6262 -6256 0
-6263 6257 0
6263 -6257 0
-6264 6258 0
6264 -6258 0
-6265 3195 0
6265 -3195 0
-6266 6265 3199 0
6266 -6265 0
6266 -3199 0
-6267 6265 0
-6267 3199 0
6267 -6265 -3199 0
-6268 6266 3203 0
6268 -6266 0
6268 -3203 0
-6269 6267 6266 0
-6269 6267 3203 0
6269 -6267 0
6269 -6266 -3203 0
-6270 6267 0
-6270 3203 0
6270 -6267 -3203 0
-6271 3196 0
6271 -3196 0
-6272 6271 3200 0
6272 -6271 0
6272 -3200 0
-6273 6271 0
-6273 3200 0
6273 -6271 -3200 0
-6274 6272 3204 0
6274 -6272 0
6274 -3204 0
-6275 6273 6272 0
-6275 6273 3204 0
6275 -6273 0
6275 -6272 -3204 0
-6276 6273 0
-6276 3204 0
6276 -6273 -3204 0
-6274 6268 0
6274 -6268 0
-6275 6269 0
6275 -6269 0
-6276 6270 0
6276 -6270 0
-6277 3207 0
6277 -3207 0
-6278 6277 3211 0
6278 -6277 0
6278 -3211 0
-6279 6277 0
-6279 3211 0
6279 -6277 -3211 0
-6280 6278 3215 0
6280 -6278 0
6280 -3215 0
-6281 6279 6278 0
-6281 6279 3215 0
6281 -6279 0
6281 -6278 -3215 0
-6282 6279 0
-6282 3215 0
6282 -6279 -3215 0
-6283 3208 0
6283 -3208 0
-6284 6283 3212 0
6284 -6283 0
6284 -3212 0
-6285 6283 0
-6285 3212 0
6285 -6283 -3212 0
-6286 6284 3216 0
6286 -6284 0
6286 -3216 0
-6287 6285 6284 0
-6287 6285 3216 0
6287 -6285 0
6287 -6284 -3216 0
-6288 6285 0
-6288 3216 0
6288 -6285 -3216 0
-6286 6280 0
6286 -6280 0
-6287 6281 0
6287 -6281 0
-6288 6282 0
6288 -6282 0
-6289 3219 0
6289 -3219 0
-6290 6289 3223 0
6290 -6289 0
6290 -3223 0
-6291 6289 0
-6291 3223 0
6291 -6289 -3223 0
-6292 6290 3227 0
6292 -6290 0
6292 -3227 0
-6293 6291 6290 0
-6293 6291 3227 0
6293 -6291 0
6293 -6290 -3227 0
-6294 6291 0
-6294 3227 0
6294 -6291 -3227 0
-6295 3220 0
6295 -3220 0
-6296 6295 3224 0
6296 -6295 0
6296 -3224 0
-6297 6295 0
-6297 3224 0
6297 -6295 -3224 0
-6298 6296 3228 0
6298 -6296 0
6298 -3228 0
-6299 6297 6296 0
-6299 6297 3228 0
6299 -6297 0
6299 -6296 -3228 0
-6300 6297 0
-6300 3228 0
6300 -6297 -3228 0
-6298 6292 0
6298 -6292 0
-6299 6293 0
6299 -6293 0
-6300 6294 0
6300 -6294 0
-6301 3231 0
6301 -3231 0
-6302 6301 3235 0
6302 -6301 0
6302 -3235 0
-6303 6301 0
-6303 3235 0
6303 -6301 -3235 0
-6304 6302 3239 0
6304 -6302 0
6304 -3239 0
-6305 6303 6302 0
-6305 6303 3239 0
6305 -6303 0
6305 -6302 -3239 0
-6306 6303 0
-6306 3239 0
6306 -6303 -3239 0
-6307 3232 0
6307 -3232 0
-6308 6307 3236 0
6308 -6307 0
6308 -3236 0
-6309 6307 0
-6309 3236 0
6309 -6307 -3236 0
-6310 6308 3240 0
6310 -6308 0
6310 -3240 0
-6311 6309 6308 0
-6311 6309 3240 0
6311 -6309 0
6311 -6308 -3240 0
-6312 6309 0
-6312 3240 0
6312 -6309 -3240 0
-6310 6304 0
6310 -6304 0
-6311 6305 0
6311 -6305 0
-6312 6306 0
6312 -6306 0
-6313 3243 0
6313 -3243 0
-6314 6313 3247 0
6314 -6313 0
6314 -3247 0
-6315 6313 0
-6315 3247 0
6315 -6313 -3247 0
-6316 6314 3251 0
6316 -6314 0
6316 -3251 0
-6317 6315 6314 0
-6317 6315 3251 0
6317 -6315 0
6317 -6314 -3251 0
-6318 6315 0
-6318 3251 0
6318 -6315 -3251 0
-6319 3244 0
6319 -3244 0
-6320 6319 3248 0
6320 -6319 0
6320 -3248 0
-6321 6319 0
-6321 3248 0
6321 -6319 -3248 0
-6322 6320 3252 0
6322 -6320 0
6322 -3252 0
-6323 6321 6320 0
-6323 6321 3252 0
6323 -6321 0
6323 -6320 -3252 0
-6324 6321 0
-6324 3252 0
6324 -6321 -3252 0
-6322 6316 0
6322 -6316 0
-6323 6317 0
6323 -6317 0
-6324 6318 0
6324 -6318 0
-6325 3255 0
6325 -3255 0
-6326 6325 3259 0
6326 -6325 0
6326 -3259 0
-6327 6325 0
-6327 3259 0
6327 -6325 -3259 0
-6328 6326 3263 0
6328 -6326 0
6328 -3263 0
-6329 6327 6326 0
-6329 6327 3263 0
6329 -6327 0
6329 -6326 -3263 0
-6330 6327 0
-6330 3263 0
6330 -6327 -3263 0
-6331 3256 0
6331 -3256 0
-6332 6331 3260 0
6332 -6331 0
6332 -3260 0
-6333 6331 0
-6333 3260 0
6333 -6331 -3260 0
-6334 6332 3264 0
6334 -6332 0
6334 -3264 0
-6335 6333 6332 0
-6335 6333 3264 0
6335 -6333 0
6335 -6332 -3264 0
-6336 6333 0
-6336 3264 0
6336 -6333 -3264 0
-6334 6329 0
6334 -6329 0
-6335 6330 0
6335 -6330 0
-6336 0
6328 0
